 vasp.6.4.3 19Mar24 (build Jul 11 2024 12:30:41) complex                        
  
 executed on             LinuxIFC date 2025.12.02  21:22:11
 running  256 mpi-ranks, on   16 nodes
 distrk:  each k-point on  256 cores,    1 groups
 distr:  one band on NCORE=  16 cores,   16 groups


--------------------------------------------------------------------------------------------------------


 INCAR:
   SYSTEM = SiGe
   ISTART = 0
   ICHARG = 2
   PREC = Accurate
   EDIFF = 1E-8
   EDIFFG = -0.00002
   ENCUT = 600
   ISMEAR = 0
   SIGMA = 0.01
   NELM = 200
   NCORE = 16

 POTCAR:    PAW_PBE Si 05Jan2001                  
 POTCAR:    PAW_PBE Ge_d 03Jul2007                
 POTCAR:    PAW_PBE Si 05Jan2001                  
   VRHFIN =Si: s2p2                                                                                 
   LEXCH  = PE                                                                                      
   EATOM  =   103.0669 eV,    7.5752 Ry                                                             
                                                                                                    
   TITEL  = PAW_PBE Si 05Jan2001                                                                    
   LULTRA =        F    use ultrasoft PP ?                                                          
   IUNSCR =        1    unscreen: 0-lin 1-nonlin 2-no                                               
   RPACOR =    1.500    partial core radius                                                         
   POMASS =   28.085; ZVAL   =    4.000    mass and valenz                                          
   RCORE  =    1.900    outmost cutoff radius                                                       
   RWIGS  =    2.480; RWIGS  =    1.312    wigner-seitz radius (au A)                               
   ENMAX  =  245.345; ENMIN  =  184.009 eV                                                          
   ICORE  =        2    local potential                                                             
   LCOR   =        T    correct aug charges                                                         
   LPAW   =        T    paw PP                                                                      
   EAUG   =  322.069                                                                                
   DEXC   =    0.000                                                                                
   RMAX   =    1.950    core radius for proj-oper                                                   
   RAUG   =    1.300    factor for augmentation sphere                                              
   RDEP   =    1.993    radius for radial grids                                                     
   RDEPT  =    1.837    core radius for aug-charge                                                  
                                                                                                    
   Atomic configuration                                                                             
    6 entries                                                                                       
     n  l   j            E        occ.                                                              
     1  0  0.50     -1785.8828   2.0000                                                             
     2  0  0.50      -139.4969   2.0000                                                             
     2  1  1.50       -95.5546   6.0000                                                             
     3  0  0.50       -10.8127   2.0000                                                             
     3  1  0.50        -4.0811   2.0000                                                             
     3  2  1.50        -4.0817   0.0000                                                             
   Description                                                                                      
     l       E           TYP  RCUT    TYP  RCUT                                                     
     0    -10.8127223     23  1.900                                                                 
     0     -7.6451159     23  1.900                                                                 
     1     -4.0811372     23  1.900                                                                 
     1      2.4879257     23  1.900                                                                 
     2     -4.0817478      7  1.900                                                                 
  local pseudopotential read in
  partial core-charges read in
  partial kinetic energy density read in
  atomic valenz-charges read in
  non local Contribution for L=           0  read in
    real space projection operators read in
  non local Contribution for L=           0  read in
    real space projection operators read in
  non local Contribution for L=           1  read in
    real space projection operators read in
  non local Contribution for L=           1  read in
    real space projection operators read in
    PAW grid and wavefunctions read in
 
   number of l-projection  operators is LMAX  =           4
   number of lm-projection operators is LMMAX =           8
 
 POTCAR:    PAW_PBE Ge_d 03Jul2007                
   SHA256 =  944b26c40d2d7c4f4eb1ff3a2e8dbfdd7129146276cd341854bfd5c0e57780ed Ge_d/POTCAR           
   COPYR  = (c) Copyright 03Jul2007 Georg Kresse                                                    
   COPYR  = This file is part of the software VASP. Any use, copying, and all other rights are regul
   COPYR  = If you do not have a valid VASP license, you may not use, copy or distribute this file. 
   VRHFIN =Ge: 3d4s4p                                                                               
   LEXCH  = PE                                                                                      
   EATOM  =  2596.2402 eV,  190.8183 Ry                                                             
                                                                                                    
   TITEL  = PAW_PBE Ge_d 03Jul2007                                                                  
   LULTRA =        F    use ultrasoft PP ?                                                          
   IUNSCR =        1    unscreen: 0-lin 1-nonlin 2-no                                               
   RPACOR =    2.000    partial core radius                                                         
   POMASS =   72.610; ZVAL   =   14.000    mass and valenz                                          
   RCORE  =    2.300    outmost cutoff radius                                                       
   RWIGS  =    2.300; RWIGS  =    1.217    wigner-seitz radius (au A)                               
   ENMAX  =  310.294; ENMIN  =  232.720 eV                                                          
   ICORE  =        3    local potential                                                             
   LCOR   =        T    correct aug charges                                                         
   LPAW   =        T    paw PP                                                                      
   EAUG   =  531.356                                                                                
   DEXC   =    0.000                                                                                
   RMAX   =    2.342    core radius for proj-oper                                                   
   RAUG   =    1.300    factor for augmentation sphere                                              
   RDEP   =    2.318    radius for radial grids                                                     
   RDEPT  =    1.783    core radius for aug-charge                                                  
                                                                                                    
   Atomic configuration                                                                             
    9 entries                                                                                       
     n  l   j            E        occ.                                                              
     1  0  0.50    -10959.8463   2.0000                                                             
     2  0  0.50     -1371.6056   2.0000                                                             
     2  1  1.50     -1198.4791   6.0000                                                             
     3  0  0.50      -168.4733   2.0000                                                             
     3  1  1.50      -115.6019   6.0000                                                             
     3  2  2.50       -29.3106  10.0000                                                             
     4  0  0.50       -11.7309   2.0000                                                             
     4  1  0.50        -3.8952   2.0000                                                             
     4  3  2.50        -4.0817   0.0000                                                             
   Description                                                                                      
     l       E           TYP  RCUT    TYP  RCUT                                                     
     2    -29.3105938     23  2.200                                                                 
     2    -13.6058260     23  2.200                                                                 
     0    -11.7309493     23  2.300                                                                 
     0     -7.4578696     23  2.300                                                                 
     1     -3.8952261     23  2.300                                                                 
     1      6.1178114     23  2.300                                                                 
     3     -1.3605826     23  2.300                                                                 
  local pseudopotential read in
  partial core-charges read in
  partial kinetic energy density read in
  atomic valenz-charges read in
  non local Contribution for L=           2  read in
    real space projection operators read in
  non local Contribution for L=           2  read in
    real space projection operators read in
  non local Contribution for L=           0  read in
    real space projection operators read in
  non local Contribution for L=           0  read in
    real space projection operators read in
  non local Contribution for L=           1  read in
    real space projection operators read in
  non local Contribution for L=           1  read in
    real space projection operators read in
    PAW grid and wavefunctions read in
 
   number of l-projection  operators is LMAX  =           6
   number of lm-projection operators is LMMAX =          18
 
 -----------------------------------------------------------------------------
|                                                                             |
|               ----> ADVICE to this user running VASP <----                  |
|                                                                             |
|     You have a (more or less) 'large supercell' and for larger cells it     |
|     might be more efficient to use real-space projection operators.         |
|     Therefore, try LREAL= Auto in the INCAR file.                           |
|     Mind: For very accurate calculation, you might also keep the            |
|     reciprocal projection scheme (i.e. LREAL=.FALSE.).                      |
|                                                                             |
 -----------------------------------------------------------------------------

  PAW_PBE Si 05Jan2001                  :
 energy of atom  1       EATOM= -103.0669
 kinetic energy error for atom=    0.0003 (will be added to EATOM!!)
  PAW_PBE Ge_d 03Jul2007                :
 energy of atom  2       EATOM=-2596.2402
 kinetic energy error for atom=    0.0024 (will be added to EATOM!!)
 
 
 POSCAR: generated by phonopy
  positions in direct lattice
  No initial velocities read in


 exchange-correlation table for PE
   RHO(1)=    0.500       N(1)  =     2000
   RHO(2)=  100.500       N(2)  =     4000
 


--------------------------------------------------------------------------------------------------------


 ion  position               nearest neighbor table
   1  0.001  0.000  0.000- 125 2.42  80 2.42 116 2.42 128 2.43
   2  0.250  0.000  0.000-  77 2.42 125 2.42 113 2.42 126 2.42
   3  0.500  0.000  0.000-  78 2.42 126 2.42 114 2.42 127 2.42
   4  0.750  0.000  0.000-  79 2.42 127 2.42 115 2.42 128 2.42
   5  0.000  0.250  0.000-  68 2.42 116 2.42 113 2.42 120 2.42
   6  0.250  0.250  0.000-  65 2.42 113 2.42 114 2.42 117 2.42
   7  0.500  0.250  0.000-  66 2.42 114 2.42 115 2.42 118 2.42
   8  0.750  0.250  0.000-  67 2.42 115 2.42 116 2.42 119 2.42
   9  0.000  0.500  0.000-  72 2.42 120 2.42 117 2.42 124 2.42
  10  0.250  0.500  0.000-  69 2.42 117 2.42 118 2.42 121 2.42
  11  0.500  0.500  0.000-  70 2.42 118 2.42 119 2.42 122 2.42
  12  0.750  0.500  0.000-  71 2.42 119 2.42 120 2.42 123 2.42
  13  0.000  0.750  0.000-  76 2.42 124 2.42 121 2.42 128 2.42
  14  0.250  0.750  0.000-  73 2.42 121 2.42 122 2.42 125 2.42
  15  0.500  0.750  0.000-  74 2.42 122 2.42 123 2.42 126 2.42
  16  0.750  0.750  0.000-  75 2.42 123 2.42 124 2.42 127 2.42
  17  0.000  0.000  0.250-  80 2.42  96 2.42  68 2.42  77 2.42
  18  0.250  0.000  0.250-  77 2.42  93 2.42  78 2.42  65 2.42
  19  0.500  0.000  0.250-  78 2.42  94 2.42  79 2.42  66 2.42
  20  0.750  0.000  0.250-  79 2.42  95 2.42  80 2.42  67 2.42
  21  0.000  0.250  0.250-  68 2.42  84 2.42  72 2.42  65 2.42
  22  0.250  0.250  0.250-  65 2.42  81 2.42  69 2.42  66 2.42
  23  0.500  0.250  0.250-  66 2.42  82 2.42  70 2.42  67 2.42
  24  0.750  0.250  0.250-  67 2.42  83 2.42  71 2.42  68 2.42
  25  0.000  0.500  0.250-  72 2.42  88 2.42  76 2.42  69 2.42
  26  0.250  0.500  0.250-  69 2.42  85 2.42  73 2.42  70 2.42
  27  0.500  0.500  0.250-  70 2.42  86 2.42  74 2.42  71 2.42
  28  0.750  0.500  0.250-  71 2.42  87 2.42  75 2.42  72 2.42
  29  0.000  0.750  0.250-  76 2.42  92 2.42  80 2.42  73 2.42
  30  0.250  0.750  0.250-  73 2.42  89 2.42  77 2.42  74 2.42
  31  0.500  0.750  0.250-  74 2.42  90 2.42  78 2.42  75 2.42
  32  0.750  0.750  0.250-  75 2.42  91 2.42  79 2.42  76 2.42
  33  0.000  0.000  0.500-  96 2.42 112 2.42  84 2.42  93 2.42
  34  0.250  0.000  0.500-  93 2.42 109 2.42  94 2.42  81 2.42
  35  0.500  0.000  0.500-  94 2.42 110 2.42  95 2.42  82 2.42
  36  0.750  0.000  0.500-  95 2.42 111 2.42  96 2.42  83 2.42
  37  0.000  0.250  0.500-  84 2.42 100 2.42  88 2.42  81 2.42
  38  0.250  0.250  0.500-  81 2.42  97 2.42  85 2.42  82 2.42
  39  0.500  0.250  0.500-  82 2.42  98 2.42  86 2.42  83 2.42
  40  0.750  0.250  0.500-  83 2.42  99 2.42  87 2.42  84 2.42
  41  0.000  0.500  0.500-  88 2.42 104 2.42  92 2.42  85 2.42
  42  0.250  0.500  0.500-  85 2.42 101 2.42  89 2.42  86 2.42
  43  0.500  0.500  0.500-  86 2.42 102 2.42  90 2.42  87 2.42
  44  0.750  0.500  0.500-  87 2.42 103 2.42  91 2.42  88 2.42
  45  0.000  0.750  0.500-  92 2.42 108 2.42  96 2.42  89 2.42
  46  0.250  0.750  0.500-  89 2.42 105 2.42  93 2.42  90 2.42
  47  0.500  0.750  0.500-  90 2.42 106 2.42  94 2.42  91 2.42
  48  0.750  0.750  0.500-  91 2.42 107 2.42  95 2.42  92 2.42
  49  0.000  0.000  0.750- 112 2.42 128 2.42 100 2.42 109 2.42
  50  0.250  0.000  0.750- 109 2.42 125 2.42 110 2.42  97 2.42
  51  0.500  0.000  0.750- 110 2.42 126 2.42 111 2.42  98 2.42
  52  0.750  0.000  0.750- 111 2.42 127 2.42 112 2.42  99 2.42
  53  0.000  0.250  0.750- 100 2.42 116 2.42 104 2.42  97 2.42
  54  0.250  0.250  0.750-  97 2.42 113 2.42 101 2.42  98 2.42
  55  0.500  0.250  0.750-  98 2.42 114 2.42 102 2.42  99 2.42
  56  0.750  0.250  0.750-  99 2.42 115 2.42 103 2.42 100 2.42
  57  0.000  0.500  0.750- 104 2.42 120 2.42 108 2.42 101 2.42
  58  0.250  0.500  0.750- 101 2.42 117 2.42 105 2.42 102 2.42
  59  0.500  0.500  0.750- 102 2.42 118 2.42 106 2.42 103 2.42
  60  0.750  0.500  0.750- 103 2.42 119 2.42 107 2.42 104 2.42
  61  0.000  0.750  0.750- 108 2.42 124 2.42 112 2.42 105 2.42
  62  0.250  0.750  0.750- 105 2.42 121 2.42 109 2.42 106 2.42
  63  0.500  0.750  0.750- 106 2.42 122 2.42 110 2.42 107 2.42
  64  0.750  0.750  0.750- 107 2.42 123 2.42 111 2.42 108 2.42
  65  0.188  0.188  0.188-   6 2.42  22 2.42  21 2.42  18 2.42
  66  0.438  0.188  0.188-   7 2.42  23 2.42  22 2.42  19 2.42
  67  0.688  0.188  0.188-   8 2.42  24 2.42  23 2.42  20 2.42
  68  0.938  0.188  0.188-   5 2.42  21 2.42  17 2.42  24 2.42
  69  0.188  0.438  0.188-  10 2.42  26 2.42  25 2.42  22 2.42
  70  0.438  0.438  0.188-  11 2.42  27 2.42  26 2.42  23 2.42
  71  0.688  0.438  0.188-  12 2.42  28 2.42  27 2.42  24 2.42
  72  0.938  0.438  0.188-   9 2.42  25 2.42  21 2.42  28 2.42
  73  0.188  0.688  0.188-  14 2.42  30 2.42  29 2.42  26 2.42
  74  0.438  0.688  0.188-  15 2.42  31 2.42  30 2.42  27 2.42
  75  0.688  0.688  0.188-  16 2.42  32 2.42  31 2.42  28 2.42
  76  0.938  0.688  0.188-  13 2.42  29 2.42  25 2.42  32 2.42
  77  0.188  0.938  0.188-   2 2.42  18 2.42  17 2.42  30 2.42
  78  0.438  0.938  0.188-   3 2.42  19 2.42  18 2.42  31 2.42
  79  0.688  0.938  0.188-   4 2.42  20 2.42  19 2.42  32 2.42
  80  0.938  0.938  0.188-  17 2.42  20 2.42  29 2.42   1 2.42
  81  0.188  0.188  0.438-  22 2.42  38 2.42  37 2.42  34 2.42
  82  0.438  0.188  0.438-  23 2.42  39 2.42  38 2.42  35 2.42
  83  0.688  0.188  0.438-  24 2.42  40 2.42  39 2.42  36 2.42
  84  0.938  0.188  0.438-  21 2.42  37 2.42  33 2.42  40 2.42
  85  0.188  0.438  0.438-  26 2.42  42 2.42  41 2.42  38 2.42
  86  0.438  0.438  0.438-  27 2.42  43 2.42  42 2.42  39 2.42
  87  0.688  0.438  0.438-  28 2.42  44 2.42  43 2.42  40 2.42
  88  0.938  0.438  0.438-  25 2.42  41 2.42  37 2.42  44 2.42
  89  0.188  0.688  0.438-  30 2.42  46 2.42  45 2.42  42 2.42
  90  0.438  0.688  0.438-  31 2.42  47 2.42  46 2.42  43 2.42
  91  0.688  0.688  0.438-  32 2.42  48 2.42  47 2.42  44 2.42
  92  0.938  0.688  0.438-  29 2.42  45 2.42  41 2.42  48 2.42
  93  0.188  0.938  0.438-  18 2.42  34 2.42  33 2.42  46 2.42
  94  0.438  0.938  0.438-  19 2.42  35 2.42  34 2.42  47 2.42
  95  0.688  0.938  0.438-  20 2.42  36 2.42  35 2.42  48 2.42
  96  0.938  0.938  0.438-  17 2.42  33 2.42  36 2.42  45 2.42
  97  0.188  0.188  0.688-  38 2.42  54 2.42  53 2.42  50 2.42
  98  0.438  0.188  0.688-  39 2.42  55 2.42  54 2.42  51 2.42
  99  0.688  0.188  0.688-  40 2.42  56 2.42  55 2.42  52 2.42
 100  0.938  0.188  0.688-  37 2.42  53 2.42  49 2.42  56 2.42
 101  0.188  0.438  0.688-  42 2.42  58 2.42  57 2.42  54 2.42
 102  0.438  0.438  0.688-  43 2.42  59 2.42  58 2.42  55 2.42
 103  0.688  0.438  0.688-  44 2.42  60 2.42  59 2.42  56 2.42
 104  0.938  0.438  0.688-  41 2.42  57 2.42  53 2.42  60 2.42
 105  0.188  0.688  0.688-  46 2.42  62 2.42  61 2.42  58 2.42
 106  0.438  0.688  0.688-  47 2.42  63 2.42  62 2.42  59 2.42
 107  0.688  0.688  0.688-  48 2.42  64 2.42  63 2.42  60 2.42
 108  0.938  0.688  0.688-  45 2.42  61 2.42  57 2.42  64 2.42
 109  0.188  0.938  0.688-  34 2.42  50 2.42  49 2.42  62 2.42
 110  0.438  0.938  0.688-  35 2.42  51 2.42  50 2.42  63 2.42
 111  0.688  0.938  0.688-  36 2.42  52 2.42  51 2.42  64 2.42
 112  0.938  0.938  0.688-  33 2.42  49 2.42  52 2.42  61 2.42
 113  0.188  0.188  0.938-   6 2.42  54 2.42   2 2.42   5 2.42
 114  0.438  0.188  0.938-   7 2.42  55 2.42   3 2.42   6 2.42
 115  0.688  0.188  0.938-   8 2.42  56 2.42   4 2.42   7 2.42
 116  0.938  0.188  0.938-   5 2.42  53 2.42   8 2.42   1 2.42
 117  0.188  0.438  0.938-  10 2.42  58 2.42   6 2.42   9 2.42
 118  0.438  0.438  0.938-  11 2.42  59 2.42   7 2.42  10 2.42
 119  0.688  0.438  0.938-  12 2.42  60 2.42   8 2.42  11 2.42
 120  0.938  0.438  0.938-   9 2.42  57 2.42  12 2.42   5 2.42
 121  0.188  0.688  0.938-  14 2.42  62 2.42  10 2.42  13 2.42
 122  0.438  0.688  0.938-  15 2.42  63 2.42  11 2.42  14 2.42
 123  0.688  0.688  0.938-  16 2.42  64 2.42  12 2.42  15 2.42
 124  0.938  0.688  0.938-  13 2.42  61 2.42  16 2.42   9 2.42
 125  0.188  0.938  0.938-   1 2.42   2 2.42  50 2.42  14 2.42
 126  0.438  0.938  0.938-   3 2.42  51 2.42  15 2.42   2 2.42
 127  0.688  0.938  0.938-   4 2.42  52 2.42  16 2.42   3 2.42
 128  0.938  0.938  0.938-  49 2.42  13 2.42   4 2.42   1 2.43
 
  LATTYP: Found a face centered cubic cell.
 ALAT       =    22.3908121497
  
  Lattice vectors:
  
 A1 = (  -0.0000000000,  11.1954060749,  11.1954060749)
 A2 = (  11.1954060749,  -0.0000000000,  11.1954060749)
 A3 = (  11.1954060749,  11.1954060749,   0.0000000000)


Analysis of symmetry for initial positions (statically):
=====================================================================
 Subroutine PRICEL returns:
 Original cell was already a primitive cell.
 

 Routine SETGRP: Setting up the symmetry group for a 
 face centered cubic supercell.


 Subroutine GETGRP returns: Found  2 space group operations
 (whereof  2 operations were pure point group operations)
 out of a pool of 48 trial point group operations.


The static configuration has the point symmetry C_1h.


Analysis of symmetry for dynamics (positions and initial velocities):
=====================================================================
 Subroutine PRICEL returns:
 Original cell was already a primitive cell.
 

 Routine SETGRP: Setting up the symmetry group for a 
 face centered cubic supercell.


 Subroutine GETGRP returns: Found  2 space group operations
 (whereof  2 operations were pure point group operations)
 out of a pool of 48 trial point group operations.


The dynamic configuration has the point symmetry C_1h.


 Subroutine INISYM returns: Found  2 space group operations
 (whereof  2 operations are pure point group operations),
 and found     1 'primitive' translations


----------------------------------------------------------------------------------------

                                     Primitive cell                                     

  volume of cell :    2806.3998

  direct lattice vectors                    reciprocal lattice vectors
    -0.000000000 11.195406075 11.195406075    -0.044661176  0.044661176  0.044661176
    11.195406075 -0.000000000 11.195406075     0.044661176 -0.044661176  0.044661176
    11.195406075 11.195406075  0.000000000     0.044661176  0.044661176 -0.044661176

  length of vectors
    15.832695107 15.832695107 15.832695107     0.077355426  0.077355426  0.077355426

  position of ions in fractional coordinates (direct lattice)
     0.000631604  0.000000000  1.000000000
     0.250000000  0.000000000  1.000000000
     0.500000000  0.000000000  1.000000000
     0.750000000  0.000000000  1.000000000
     1.000000000  0.250000000  0.000000000
     0.250000000  0.250000000  1.000000000
     0.500000000  0.250000000  1.000000000
     0.750000000  0.250000000  1.000000000
     1.000000000  0.500000000  0.000000000
     0.250000000  0.500000000  0.000000000
     0.500000000  0.500000000  1.000000000
     0.750000000  0.500000000  1.000000000
     1.000000000  0.750000000  0.000000000
     0.250000000  0.750000000  0.000000000
     0.500000000  0.750000000  1.000000000
     0.750000000  0.750000000  1.000000000
     0.000000000  0.000000000  0.250000000
     0.250000000  0.000000000  0.250000000
     0.500000000  0.000000000  0.250000000
     0.750000000  0.000000000  0.250000000
     0.000000000  0.250000000  0.250000000
     0.250000000  0.250000000  0.250000000
     0.500000000  0.250000000  0.250000000
     0.750000000  0.250000000  0.250000000
     0.000000000  0.500000000  0.250000000
     0.250000000  0.500000000  0.250000000
     0.500000000  0.500000000  0.250000000
     0.750000000  0.500000000  0.250000000
     0.000000000  0.750000000  0.250000000
     0.250000000  0.750000000  0.250000000
     0.500000000  0.750000000  0.250000000
     0.750000000  0.750000000  0.250000000
     0.000000000  0.000000000  0.500000000
     0.250000000  0.000000000  0.500000000
     0.500000000  0.000000000  0.500000000
     0.750000000  0.000000000  0.500000000
     0.000000000  0.250000000  0.500000000
     0.250000000  0.250000000  0.500000000
     0.500000000  0.250000000  0.500000000
     0.750000000  0.250000000  0.500000000
     0.000000000  0.500000000  0.500000000
     0.250000000  0.500000000  0.500000000
     0.500000000  0.500000000  0.500000000
     0.750000000  0.500000000  0.500000000
     0.000000000  0.750000000  0.500000000
     0.250000000  0.750000000  0.500000000
     0.500000000  0.750000000  0.500000000
     0.750000000  0.750000000  0.500000000
     0.000000000  0.000000000  0.750000000
     0.250000000  0.000000000  0.750000000
     0.500000000  0.000000000  0.750000000
     0.750000000  0.000000000  0.750000000
     0.000000000  0.250000000  0.750000000
     0.250000000  0.250000000  0.750000000
     0.500000000  0.250000000  0.750000000
     0.750000000  0.250000000  0.750000000
     0.000000000  0.500000000  0.750000000
     0.250000000  0.500000000  0.750000000
     0.500000000  0.500000000  0.750000000
     0.750000000  0.500000000  0.750000000
     0.000000000  0.750000000  0.750000000
     0.250000000  0.750000000  0.750000000
     0.500000000  0.750000000  0.750000000
     0.750000000  0.750000000  0.750000000
     0.187500000  0.187500000  0.187500000
     0.437500000  0.187500000  0.187500000
     0.687500000  0.187500000  0.187500000
     0.937500000  0.187500000  0.187500000
     0.187500000  0.437500000  0.187500000
     0.437500000  0.437500000  0.187500000
     0.687500000  0.437500000  0.187500000
     0.937500000  0.437500000  0.187500000
     0.187500000  0.687500000  0.187500000
     0.437500000  0.687500000  0.187500000
     0.687500000  0.687500000  0.187500000
     0.937500000  0.687500000  0.187500000
     0.187500000  0.937500000  0.187500000
     0.437500000  0.937500000  0.187500000
     0.687500000  0.937500000  0.187500000
     0.937500000  0.937500000  0.187500000
     0.187500000  0.187500000  0.437500000
     0.437500000  0.187500000  0.437500000
     0.687500000  0.187500000  0.437500000
     0.937500000  0.187500000  0.437500000
     0.187500000  0.437500000  0.437500000
     0.437500000  0.437500000  0.437500000
     0.687500000  0.437500000  0.437500000
     0.937500000  0.437500000  0.437500000
     0.187500000  0.687500000  0.437500000
     0.437500000  0.687500000  0.437500000
     0.687500000  0.687500000  0.437500000
     0.937500000  0.687500000  0.437500000
     0.187500000  0.937500000  0.437500000
     0.437500000  0.937500000  0.437500000
     0.687500000  0.937500000  0.437500000
     0.937500000  0.937500000  0.437500000
     0.187500000  0.187500000  0.687500000
     0.437500000  0.187500000  0.687500000
     0.687500000  0.187500000  0.687500000
     0.937500000  0.187500000  0.687500000
     0.187500000  0.437500000  0.687500000
     0.437500000  0.437500000  0.687500000
     0.687500000  0.437500000  0.687500000
     0.937500000  0.437500000  0.687500000
     0.187500000  0.687500000  0.687500000
     0.437500000  0.687500000  0.687500000
     0.687500000  0.687500000  0.687500000
     0.937500000  0.687500000  0.687500000
     0.187500000  0.937500000  0.687500000
     0.437500000  0.937500000  0.687500000
     0.687500000  0.937500000  0.687500000
     0.937500000  0.937500000  0.687500000
     0.187500000  0.187500000  0.937500000
     0.437500000  0.187500000  0.937500000
     0.687500000  0.187500000  0.937500000
     0.937500000  0.187500000  0.937500000
     0.187500000  0.437500000  0.937500000
     0.437500000  0.437500000  0.937500000
     0.687500000  0.437500000  0.937500000
     0.937500000  0.437500000  0.937500000
     0.187500000  0.687500000  0.937500000
     0.437500000  0.687500000  0.937500000
     0.687500000  0.687500000  0.937500000
     0.937500000  0.687500000  0.937500000
     0.187500000  0.937500000  0.937500000
     0.437500000  0.937500000  0.937500000
     0.687500000  0.937500000  0.937500000
     0.937500000  0.937500000  0.937500000

  ion indices of the primitive-cell ions
   primitive index   ion index
                 1           1
                 2           2
                 3           3
                 4           4
                 5           5
                 6           6
                 7           7
                 8           8
                 9           9
                10          10
                11          11
                12          12
                13          13
                14          14
                15          15
                16          16
                17          17
                18          18
                19          19
                20          20
                21          21
                22          22
                23          23
                24          24
                25          25
                26          26
                27          27
                28          28
                29          29
                30          30
                31          31
                32          32
                33          33
                34          34
                35          35
                36          36
                37          37
                38          38
                39          39
                40          40
                41          41
                42          42
                43          43
                44          44
                45          45
                46          46
                47          47
                48          48
                49          49
                50          50
                51          51
                52          52
                53          53
                54          54
                55          55
                56          56
                57          57
                58          58
                59          59
                60          60
                61          61
                62          62
                63          63
                64          64
                65          65
                66          66
                67          67
                68          68
                69          69
                70          70
                71          71
                72          72
                73          73
                74          74
                75          75
                76          76
                77          77
                78          78
                79          79
                80          80
                81          81
                82          82
                83          83
                84          84
                85          85
                86          86
                87          87
                88          88
                89          89
                90          90
                91          91
                92          92
                93          93
                94          94
                95          95
                96          96
                97          97
                98          98
                99          99
               100         100
               101         101
               102         102
               103         103
               104         104
               105         105
               106         106
               107         107
               108         108
               109         109
               110         110
               111         111
               112         112
               113         113
               114         114
               115         115
               116         116
               117         117
               118         118
               119         119
               120         120
               121         121
               122         122
               123         123
               124         124
               125         125
               126         126
               127         127
               128         128

----------------------------------------------------------------------------------------

 
 
 KPOINTS: Automatic kpoint scheme                 

Automatic generation of k-mesh.
 Grid dimensions read from file:
 generate k-points for:    3    3    3

 Generating k-lattice:

  Cartesian coordinates                     Fractional coordinates (reciprocal lattice)
    -0.014887059  0.014887059  0.014887059     0.333333333  0.000000000 -0.000000000
     0.014887059 -0.014887059  0.014887059     0.000000000  0.333333333  0.000000000
     0.014887059  0.014887059 -0.014887059    -0.000000000  0.000000000  0.333333333

  Length of vectors
     0.025785142  0.025785142  0.025785142

  Shift w.r.t. Gamma in fractional coordinates (k-lattice)
     0.000000000  0.000000000  0.000000000

 
 Subroutine IBZKPT returns following result:
 ===========================================
 
 Found     10 irreducible k-points:
 
 Following reciprocal coordinates:
            Coordinates               Weight
  0.000000  0.000000  0.000000      1.000000
  0.333333  0.000000  0.000000      2.000000
  0.000000  0.333333  0.000000      4.000000
  0.333333  0.333333  0.333333      2.000000
  0.333333  0.333333  0.000000      4.000000
  0.000000  0.333333  0.333333      2.000000
 -0.333333  0.333333  0.000000      4.000000
  0.000000 -0.333333  0.333333      2.000000
  0.333333  0.333333 -0.333333      4.000000
  0.333333 -0.333333 -0.333333      2.000000
 
 Following cartesian coordinates:
            Coordinates               Weight
  0.000000  0.000000  0.000000      1.000000
 -0.014887  0.014887  0.014887      2.000000
  0.014887 -0.014887  0.014887      4.000000
  0.014887  0.014887  0.014887      2.000000
  0.000000  0.000000  0.029774      4.000000
  0.029774  0.000000  0.000000      2.000000
  0.029774 -0.029774  0.000000      4.000000
  0.000000  0.029774 -0.029774      2.000000
 -0.014887 -0.014887  0.044661      4.000000
 -0.044661  0.014887  0.014887      2.000000
 


--------------------------------------------------------------------------------------------------------




 Dimension of arrays:
   k-points           NKPTS =     10   k-points in BZ     NKDIM =     10   number of bands    NBANDS=    704
   number of dos      NEDOS =    301   number of ions     NIONS =    128
   non local maximal  LDIM  =      6   non local SUM 2l+1 LMDIM =     18
   total plane-waves  NPLWV = ******
   max r-space proj   IRMAX =      1   max aug-charges    IRDMAX=  24169
   dimension x,y,z NGX =   126 NGY =  126 NGZ =  126
   dimension x,y,z NGXF=   252 NGYF=  252 NGZF=  252
   support grid    NGXF=   252 NGYF=  252 NGZF=  252
   ions per type =              64  64
   NGX,Y,Z   is equivalent  to a cutoff of  13.23, 13.23, 13.23 a.u.
   NGXF,Y,Z  is equivalent  to a cutoff of  26.46, 26.46, 26.46 a.u.

 SYSTEM =  SiGe                                    
 POSCAR =  generated by phonopy                    

 Startparameter for this run:
   NWRITE =      2    write-flag & timer
   PREC   = accura    normal or accurate (medium, high low for compatibility)
   ISTART =      0    job   : 0-new  1-cont  2-samecut
   ICHARG =      2    charge: 1-file 2-atom 10-const
   ISPIN  =      1    spin polarized calculation?
   LNONCOLLINEAR =      F non collinear calculations
   LSORBIT =      F    spin-orbit coupling
   INIWAV =      1    electr: 0-lowe 1-rand  2-diag
   LASPH  =      F    aspherical Exc in radial PAW
 Electronic Relaxation 1
   ENCUT  =  600.0 eV  44.10 Ry    6.64 a.u.  31.62 31.62 31.62*2*pi/ulx,y,z
   ENINI  =  600.0     initial cutoff
   ENAUG  =  531.4 eV  augmentation charge cutoff
   NELM   =    200;   NELMIN=  2; NELMDL= -5     # of ELM steps 
   EDIFF  = 0.1E-07   stopping-criterion for ELM
   LREAL  =      F    real-space projection
   NLSPLINE    = F    spline interpolate recip. space projectors
   LCOMPAT=      F    compatible to vasp.4.4
   GGA_COMPAT  = T    GGA compatible to vasp.4.4-vasp.4.6
   LMAXPAW     = -100 max onsite density
   LMAXMIX     =    2 max onsite mixed and CHGCAR
   VOSKOWN=      0    Vosko Wilk Nusair interpolation
   ROPT   =    0.00000   0.00000
 Ionic relaxation
   EDIFFG = -.2E-04   stopping-criterion for IOM
   NSW    =      0    number of steps for IOM
   NBLOCK =      1;   KBLOCK =      1    inner block; outer block 
   IBRION =     -1    ionic relax: 0-MD 1-quasi-New 2-CG
   NFREE  =      0    steps in history (QN), initial steepest desc. (CG)
   ISIF   =      2    stress and relaxation
   IWAVPR =     10    prediction:  0-non 1-charg 2-wave 3-comb
   ISYM   =      2    0-nonsym 1-usesym 2-fastsym
   LCORR  =      T    Harris-Foulkes like correction to forces

   POTIM  = 0.5000    time-step for ionic-motion
   TEIN   =    0.0    initial temperature
   TEBEG  =    0.0;   TEEND  =   0.0 temperature during run
   SMASS  =  -3.00    Nose mass-parameter (am)
   estimated Nose-frequenzy (Omega)   =  0.10E-29 period in steps = 0.13E+47 mass=  -0.573E-26a.u.
   SCALEE = 1.0000    scale energy and forces
   NPACO  =    256;   APACO  = 10.0  distance and # of slots for P.C.
   PSTRESS=    0.0 pullay stress

  Mass of Ions in am
   POMASS =  28.09 72.61
  Ionic Valenz
   ZVAL   =   4.00 14.00
  Atomic Wigner-Seitz radii
   RWIGS  =  -1.00 -1.00
  virtual crystal weights 
   VCA    =   1.00  1.00
   NELECT =    1152.0000    total number of electrons
   NUPDOWN=      -1.0000    fix difference up-down

 DOS related values:
   EMIN   =  10.00;   EMAX   =-10.00  energy-range for DOS
   EFERMI =   0.00;   METHOD = LEGACY      
   ISMEAR =     0;   SIGMA  =   0.01  broadening in eV -4-tet -1-fermi 0-gaus

 Electronic relaxation 2 (details)
   IALGO  =     38    algorithm
   LDIAG  =      T    sub-space diagonalisation (order eigenvalues)
   LSUBROT=      F    optimize rotation matrix (better conditioning)
   TURBO    =      0    0=normal 1=particle mesh
   IRESTART =      0    0=no restart 2=restart with 2 vectors
   NREBOOT  =      0    no. of reboots
   NMIN     =      0    reboot dimension
   EREF     =   0.00    reference energy to select bands
   IMIX   =      4    mixing-type and parameters
     AMIX     =   0.40;   BMIX     =  1.00
     AMIX_MAG =   1.60;   BMIX_MAG =  1.00
     AMIN     =   0.10
     WC   =   100.;   INIMIX=   1;  MIXPRE=   1;  MAXMIX= -45

 Intra band minimization:
   WEIMIN = 0.0000     energy-eigenvalue tresh-hold
   EBREAK =  0.36E-11  absolut break condition
   DEPER  =   0.30     relativ break condition  

   TIME   =   0.40     timestep for ELM

  volume/ion in A,a.u.               =      21.92       147.96
  Fermi-wavevector in a.u.,A,eV,Ry     =   1.216678  2.299189 20.140791  1.480306
  Thomas-Fermi vector in A             =   2.352024
 
 Write flags
   LWAVE        =      T    write WAVECAR
   LDOWNSAMPLE  =      F    k-point downsampling of WAVECAR
   LCHARG       =      T    write CHGCAR
   LVTOT        =      F    write LOCPOT, total local potential
   LVHAR        =      F    write LOCPOT, Hartree potential only
   WRT_POTENTIAL= false  ! write potential to hdf5 file
   LELF         =      F    write electronic localiz. function (ELF)
   LORBIT       =      0    0 simple, 1 ext, 2 COOP (PROOUT), +10 PAW based schemes


 Dipole corrections
   LMONO      =      F    monopole corrections only (constant potential shift)
   LDIPOL     =      F    correct potential (dipole corrections)
   IDIPOL     =      0    1-x, 2-y, 3-z, 4-all directions 
   EPSILON    =  1.0000000 bulk dielectric constant
   LVACPOTAV  =      F  vacuum potentials using an averaging scheme for the charge density
   VACPOTFLAT =  0.1000000 required flatness to determine vacuum potential
 Exchange correlation treatment:
   GGA     = PE    functional components
   XC_C    = 1    coefficients multiplying the functional components
   LIBXC   =     F    Libxc                    
   VOSKOWN =     0    Vosko Wilk Nusair interpolation
   LHFCALC =     F    Hartree Fock is set to
   LHFONE  =     F    Hartree Fock one center treatment
   AEXX    =    0.0000 exact exchange contribution

 Parameters of functionals:
   PE:
     No parameter
 
 Van der Waals corrections
   IVDW    =     0    specifies the selected vdW correction

 Linear response parameters
   LEPSILON=     F    determine dielectric tensor
   LRPA    =     F    only Hartree local field effects (RPA)
   LNABLA  =     F    use nabla operator in PAW spheres
   LVEL    =     F    velocity operator in full k-point grid
   CSHIFT  =0.1000    complex shift for real part using Kramers Kronig
   OMEGAMAX=  -1.0    maximum frequency
   DEG_THRESHOLD= 0.2000000E-02 threshold for treating states as degnerate
   RTIME   =   -0.100 relaxation time in fs
  (WPLASMAI=    0.000 imaginary part of plasma frequency in eV, 0.658/RTIME)
   DFIELD  = 0.0000000 0.0000000 0.0000000 field for delta impulse in time
 
  Optional k-point grid parameters
   LKPOINTS_OPT  =     F    use optional k-point grid
   KPOINTS_OPT_MODE=     1    mode for optional k-point grid
 
 Orbital magnetization related:
   ORBITALMAG=     F  switch on orbital magnetization
   LCHIMAG   =     F  perturbation theory with respect to B field
   DQ        =  0.001000  dq finite difference perturbation B field
   LLRAUG    =     F  two centre corrections for induced B field
   LBONE     =     F  B-component reconstruction in AE one-centre
   LVGVCALC  =     T  calculate vGv susceptibility
   LVGVAPPL  =     F  apply vGv susceptibility instead of pGv for G=0

 Random number generation:
   RANDOM_GENERATOR = DEFAULT
   PCG_SEED         = not used


--------------------------------------------------------------------------------------------------------


 Static calculation
 charge density and potential will be updated during run
 non-spin polarized calculation
 Variant of blocked Davidson
 Davidson routine will perform the subspace rotation
 perform sub-space diagonalisation
    after iterative eigenvector-optimisation
 modified Broyden-mixing scheme, WC =      100.0
 initial mixing is a Kerker type mixing with AMIX =  0.4000 and BMIX =      1.0000
 Hartree-type preconditioning will be used
 using additional bands          128
 reciprocal scheme for non local part
 use partial core corrections
 calculate Harris-corrections to forces 
   (improved forces if not selfconsistent)
 use gradient corrections 
 use of overlap-Matrix (Vanderbilt PP)
 Gauss-broadening in eV      SIGMA  =   0.01


--------------------------------------------------------------------------------------------------------


  energy-cutoff  :      600.00
  volume of cell :     2806.40
      direct lattice vectors                 reciprocal lattice vectors
    -0.000000000 11.195406075 11.195406075    -0.044661176  0.044661176  0.044661176
    11.195406075 -0.000000000 11.195406075     0.044661176 -0.044661176  0.044661176
    11.195406075 11.195406075  0.000000000     0.044661176  0.044661176 -0.044661176

  length of vectors
    15.832695107 15.832695107 15.832695107     0.077355426  0.077355426  0.077355426


 
 k-points in units of 2pi/SCALE and weight: Automatic kpoint scheme                 
   0.00000000  0.00000000  0.00000000       0.037
  -0.01488706  0.01488706  0.01488706       0.074
   0.01488706 -0.01488706  0.01488706       0.148
   0.01488706  0.01488706  0.01488706       0.074
   0.00000000  0.00000000  0.02977412       0.148
   0.02977412  0.00000000  0.00000000       0.074
   0.02977412 -0.02977412  0.00000000       0.148
   0.00000000  0.02977412 -0.02977412       0.074
  -0.01488706 -0.01488706  0.04466118       0.148
  -0.04466118  0.01488706  0.01488706       0.074
 
 k-points in reciprocal lattice and weights: Automatic kpoint scheme                 
   0.00000000  0.00000000  0.00000000       0.037
   0.33333333  0.00000000  0.00000000       0.074
   0.00000000  0.33333333  0.00000000       0.148
   0.33333333  0.33333333  0.33333333       0.074
   0.33333333  0.33333333  0.00000000       0.148
   0.00000000  0.33333333  0.33333333       0.074
  -0.33333333  0.33333333  0.00000000       0.148
   0.00000000 -0.33333333  0.33333333       0.074
   0.33333333  0.33333333 -0.33333333       0.148
   0.33333333 -0.33333333 -0.33333333       0.074
 
 position of ions in fractional coordinates (direct lattice) 
   0.00063160  0.00000000  0.00000000
   0.25000000  0.00000000  0.00000000
   0.50000000  0.00000000  0.00000000
   0.75000000  0.00000000  0.00000000
   0.00000000  0.25000000  0.00000000
   0.25000000  0.25000000  0.00000000
   0.50000000  0.25000000  0.00000000
   0.75000000  0.25000000  0.00000000
   0.00000000  0.50000000  0.00000000
   0.25000000  0.50000000  0.00000000
   0.50000000  0.50000000  0.00000000
   0.75000000  0.50000000  0.00000000
   0.00000000  0.75000000  0.00000000
   0.25000000  0.75000000  0.00000000
   0.50000000  0.75000000  0.00000000
   0.75000000  0.75000000  0.00000000
   0.00000000  0.00000000  0.25000000
   0.25000000  0.00000000  0.25000000
   0.50000000  0.00000000  0.25000000
   0.75000000  0.00000000  0.25000000
   0.00000000  0.25000000  0.25000000
   0.25000000  0.25000000  0.25000000
   0.50000000  0.25000000  0.25000000
   0.75000000  0.25000000  0.25000000
   0.00000000  0.50000000  0.25000000
   0.25000000  0.50000000  0.25000000
   0.50000000  0.50000000  0.25000000
   0.75000000  0.50000000  0.25000000
   0.00000000  0.75000000  0.25000000
   0.25000000  0.75000000  0.25000000
   0.50000000  0.75000000  0.25000000
   0.75000000  0.75000000  0.25000000
   0.00000000  0.00000000  0.50000000
   0.25000000  0.00000000  0.50000000
   0.50000000  0.00000000  0.50000000
   0.75000000  0.00000000  0.50000000
   0.00000000  0.25000000  0.50000000
   0.25000000  0.25000000  0.50000000
   0.50000000  0.25000000  0.50000000
   0.75000000  0.25000000  0.50000000
   0.00000000  0.50000000  0.50000000
   0.25000000  0.50000000  0.50000000
   0.50000000  0.50000000  0.50000000
   0.75000000  0.50000000  0.50000000
   0.00000000  0.75000000  0.50000000
   0.25000000  0.75000000  0.50000000
   0.50000000  0.75000000  0.50000000
   0.75000000  0.75000000  0.50000000
   0.00000000  0.00000000  0.75000000
   0.25000000  0.00000000  0.75000000
   0.50000000  0.00000000  0.75000000
   0.75000000  0.00000000  0.75000000
   0.00000000  0.25000000  0.75000000
   0.25000000  0.25000000  0.75000000
   0.50000000  0.25000000  0.75000000
   0.75000000  0.25000000  0.75000000
   0.00000000  0.50000000  0.75000000
   0.25000000  0.50000000  0.75000000
   0.50000000  0.50000000  0.75000000
   0.75000000  0.50000000  0.75000000
   0.00000000  0.75000000  0.75000000
   0.25000000  0.75000000  0.75000000
   0.50000000  0.75000000  0.75000000
   0.75000000  0.75000000  0.75000000
   0.18750000  0.18750000  0.18750000
   0.43750000  0.18750000  0.18750000
   0.68750000  0.18750000  0.18750000
   0.93750000  0.18750000  0.18750000
   0.18750000  0.43750000  0.18750000
   0.43750000  0.43750000  0.18750000
   0.68750000  0.43750000  0.18750000
   0.93750000  0.43750000  0.18750000
   0.18750000  0.68750000  0.18750000
   0.43750000  0.68750000  0.18750000
   0.68750000  0.68750000  0.18750000
   0.93750000  0.68750000  0.18750000
   0.18750000  0.93750000  0.18750000
   0.43750000  0.93750000  0.18750000
   0.68750000  0.93750000  0.18750000
   0.93750000  0.93750000  0.18750000
   0.18750000  0.18750000  0.43750000
   0.43750000  0.18750000  0.43750000
   0.68750000  0.18750000  0.43750000
   0.93750000  0.18750000  0.43750000
   0.18750000  0.43750000  0.43750000
   0.43750000  0.43750000  0.43750000
   0.68750000  0.43750000  0.43750000
   0.93750000  0.43750000  0.43750000
   0.18750000  0.68750000  0.43750000
   0.43750000  0.68750000  0.43750000
   0.68750000  0.68750000  0.43750000
   0.93750000  0.68750000  0.43750000
   0.18750000  0.93750000  0.43750000
   0.43750000  0.93750000  0.43750000
   0.68750000  0.93750000  0.43750000
   0.93750000  0.93750000  0.43750000
   0.18750000  0.18750000  0.68750000
   0.43750000  0.18750000  0.68750000
   0.68750000  0.18750000  0.68750000
   0.93750000  0.18750000  0.68750000
   0.18750000  0.43750000  0.68750000
   0.43750000  0.43750000  0.68750000
   0.68750000  0.43750000  0.68750000
   0.93750000  0.43750000  0.68750000
   0.18750000  0.68750000  0.68750000
   0.43750000  0.68750000  0.68750000
   0.68750000  0.68750000  0.68750000
   0.93750000  0.68750000  0.68750000
   0.18750000  0.93750000  0.68750000
   0.43750000  0.93750000  0.68750000
   0.68750000  0.93750000  0.68750000
   0.93750000  0.93750000  0.68750000
   0.18750000  0.18750000  0.93750000
   0.43750000  0.18750000  0.93750000
   0.68750000  0.18750000  0.93750000
   0.93750000  0.18750000  0.93750000
   0.18750000  0.43750000  0.93750000
   0.43750000  0.43750000  0.93750000
   0.68750000  0.43750000  0.93750000
   0.93750000  0.43750000  0.93750000
   0.18750000  0.68750000  0.93750000
   0.43750000  0.68750000  0.93750000
   0.68750000  0.68750000  0.93750000
   0.93750000  0.68750000  0.93750000
   0.18750000  0.93750000  0.93750000
   0.43750000  0.93750000  0.93750000
   0.68750000  0.93750000  0.93750000
   0.93750000  0.93750000  0.93750000
 
 position of ions in cartesian coordinates  (Angst):
  -0.00000000  0.00707107  0.00707107
  -0.00000000  2.79885152  2.79885152
  -0.00000000  5.59770304  5.59770304
  -0.00000000  8.39655456  8.39655456
   2.79885152 -0.00000000  2.79885152
   2.79885152  2.79885152  5.59770304
   2.79885152  5.59770304  8.39655456
   2.79885152  8.39655456 11.19540607
   5.59770304 -0.00000000  5.59770304
   5.59770304  2.79885152  8.39655456
   5.59770304  5.59770304 11.19540607
   5.59770304  8.39655456 13.99425759
   8.39655456 -0.00000000  8.39655456
   8.39655456  2.79885152 11.19540607
   8.39655456  5.59770304 13.99425759
   8.39655456  8.39655456 16.79310911
   2.79885152  2.79885152  0.00000000
   2.79885152  5.59770304  2.79885152
   2.79885152  8.39655456  5.59770304
   2.79885152 11.19540607  8.39655456
   5.59770304  2.79885152  2.79885152
   5.59770304  5.59770304  5.59770304
   5.59770304  8.39655456  8.39655456
   5.59770304 11.19540607 11.19540607
   8.39655456  2.79885152  5.59770304
   8.39655456  5.59770304  8.39655456
   8.39655456  8.39655456 11.19540607
   8.39655456 11.19540607 13.99425759
  11.19540607  2.79885152  8.39655456
  11.19540607  5.59770304 11.19540607
  11.19540607  8.39655456 13.99425759
  11.19540607 11.19540607 16.79310911
   5.59770304  5.59770304  0.00000000
   5.59770304  8.39655456  2.79885152
   5.59770304 11.19540607  5.59770304
   5.59770304 13.99425759  8.39655456
   8.39655456  5.59770304  2.79885152
   8.39655456  8.39655456  5.59770304
   8.39655456 11.19540607  8.39655456
   8.39655456 13.99425759 11.19540607
  11.19540607  5.59770304  5.59770304
  11.19540607  8.39655456  8.39655456
  11.19540607 11.19540607 11.19540607
  11.19540607 13.99425759 13.99425759
  13.99425759  5.59770304  8.39655456
  13.99425759  8.39655456 11.19540607
  13.99425759 11.19540607 13.99425759
  13.99425759 13.99425759 16.79310911
   8.39655456  8.39655456  0.00000000
   8.39655456 11.19540607  2.79885152
   8.39655456 13.99425759  5.59770304
   8.39655456 16.79310911  8.39655456
  11.19540607  8.39655456  2.79885152
  11.19540607 11.19540607  5.59770304
  11.19540607 13.99425759  8.39655456
  11.19540607 16.79310911 11.19540607
  13.99425759  8.39655456  5.59770304
  13.99425759 11.19540607  8.39655456
  13.99425759 13.99425759 11.19540607
  13.99425759 16.79310911 13.99425759
  16.79310911  8.39655456  8.39655456
  16.79310911 11.19540607 11.19540607
  16.79310911 13.99425759 13.99425759
  16.79310911 16.79310911 16.79310911
   4.19827728  4.19827728  4.19827728
   4.19827728  6.99712880  6.99712880
   4.19827728  9.79598032  9.79598032
   4.19827728 12.59483183 12.59483183
   6.99712880  4.19827728  6.99712880
   6.99712880  6.99712880  9.79598032
   6.99712880  9.79598032 12.59483183
   6.99712880 12.59483183 15.39368335
   9.79598032  4.19827728  9.79598032
   9.79598032  6.99712880 12.59483183
   9.79598032  9.79598032 15.39368335
   9.79598032 12.59483183 18.19253487
  12.59483183  4.19827728 12.59483183
  12.59483183  6.99712880 15.39368335
  12.59483183  9.79598032 18.19253487
  12.59483183 12.59483183 20.99138639
   6.99712880  6.99712880  4.19827728
   6.99712880  9.79598032  6.99712880
   6.99712880 12.59483183  9.79598032
   6.99712880 15.39368335 12.59483183
   9.79598032  6.99712880  6.99712880
   9.79598032  9.79598032  9.79598032
   9.79598032 12.59483183 12.59483183
   9.79598032 15.39368335 15.39368335
  12.59483183  6.99712880  9.79598032
  12.59483183  9.79598032 12.59483183
  12.59483183 12.59483183 15.39368335
  12.59483183 15.39368335 18.19253487
  15.39368335  6.99712880 12.59483183
  15.39368335  9.79598032 15.39368335
  15.39368335 12.59483183 18.19253487
  15.39368335 15.39368335 20.99138639
   9.79598032  9.79598032  4.19827728
   9.79598032 12.59483183  6.99712880
   9.79598032 15.39368335  9.79598032
   9.79598032 18.19253487 12.59483183
  12.59483183  9.79598032  6.99712880
  12.59483183 12.59483183  9.79598032
  12.59483183 15.39368335 12.59483183
  12.59483183 18.19253487 15.39368335
  15.39368335  9.79598032  9.79598032
  15.39368335 12.59483183 12.59483183
  15.39368335 15.39368335 15.39368335
  15.39368335 18.19253487 18.19253487
  18.19253487  9.79598032 12.59483183
  18.19253487 12.59483183 15.39368335
  18.19253487 15.39368335 18.19253487
  18.19253487 18.19253487 20.99138639
  12.59483183 12.59483183  4.19827728
  12.59483183 15.39368335  6.99712880
  12.59483183 18.19253487  9.79598032
  12.59483183 20.99138639 12.59483183
  15.39368335 12.59483183  6.99712880
  15.39368335 15.39368335  9.79598032
  15.39368335 18.19253487 12.59483183
  15.39368335 20.99138639 15.39368335
  18.19253487 12.59483183  9.79598032
  18.19253487 15.39368335 12.59483183
  18.19253487 18.19253487 15.39368335
  18.19253487 20.99138639 18.19253487
  20.99138639 12.59483183 12.59483183
  20.99138639 15.39368335 15.39368335
  20.99138639 18.19253487 18.19253487
  20.99138639 20.99138639 20.99138639
 


--------------------------------------------------------------------------------------------------------


 k-point     1 :   0.0000 0.0000 0.0000  plane waves:   93585
 k-point     2 :   0.3333 0.0000 0.0000  plane waves:   93619
 k-point     3 :   0.0000 0.3333 0.0000  plane waves:   93619
 k-point     4 :   0.3333 0.3333 0.3333  plane waves:   93619
 k-point     5 :   0.3333 0.3333 0.0000  plane waves:   93665
 k-point     6 :   0.0000 0.3333 0.3333  plane waves:   93665
 k-point     7 :  -0.3333 0.3333 0.0000  plane waves:   93638
 k-point     8 :   0.0000-0.3333 0.3333  plane waves:   93638
 k-point     9 :   0.3333 0.3333-0.3333  plane waves:   93638
 k-point    10 :   0.3333-0.3333-0.3333  plane waves:   93638

 maximum and minimum number of plane-waves per node :      5925     5814

 maximum number of plane-waves:     93665
 maximum index in each direction: 
   IXMAX=   31   IYMAX=   31   IZMAX=   31
   IXMIN=  -31   IYMIN=  -31   IZMIN=  -31


 parallel 3D FFT for wavefunctions:
    minimum data exchange during FFTs selected (reduces bandwidth)
 parallel 3D FFT for charge:
    minimum data exchange during FFTs selected (reduces bandwidth)


 total amount of memory used by VASP MPI-rank0   115875. kBytes
=======================================================================

   base      :      30000. kBytes
   nonl-proj :      28937. kBytes
   fftplans  :       6015. kBytes
   grid      :       8672. kBytes
   one-center:        124. kBytes
   wavefun   :      42127. kBytes
 
     INWAV:  cpu time      0.0000: real time      0.0000
 Broyden mixing: mesh for mixing (old mesh)
   NGX = 63   NGY = 63   NGZ = 63
  (NGX  =252   NGY  =252   NGZ  =252)
  gives a total of 250047 points

 initial charge density was supplied:
 charge density of overlapping atoms calculated
 number of electron    1152.0000000 magnetization 
 keeping initial charge density in first step


--------------------------------------------------------------------------------------------------------


 Maximum index for augmentation-charges          913 (set IRDMAX)


--------------------------------------------------------------------------------------------------------


 First call to EWALD:  gamma=   0.126
 Maximum number of real-space cells 3x 3x 3
 Maximum number of reciprocal cells 3x 3x 3

    FEWALD:  cpu time      0.0111: real time      0.0144


--------------------------------------- Ionic step        1  -------------------------------------------




--------------------------------------- Iteration      1(   1)  ---------------------------------------


    POTLOK:  cpu time      0.2283: real time      0.2376
    SETDIJ:  cpu time      0.0152: real time      0.0182
     EDDAV:  cpu time     57.4301: real time     57.6891
       DOS:  cpu time      0.0059: real time      0.0102
    --------------------------------------------
      LOOP:  cpu time     57.6795: real time     57.9550

 eigenvalue-minimisations  : 16768
 total energy-change (2. order) : 0.2061973E+05  (-0.4420244E+05)
 number of electron    1152.0000000 magnetization 
 augmentation part     1152.0000000 magnetization 

 Free energy of the ion-electron system (eV)
  ---------------------------------------------------
  alpha Z        PSCENC =      2970.02515869
  Ewald energy   TEWEN  =    -87406.17190952
  -Hartree energ DENC   =    -53633.26839162
  -exchange      EXHF   =         0.00000000
  -V(xc)+E(xc)   XCENC  =      4074.08040134
  PAW double counting   =    123183.33653208  -149894.99457999
  entropy T*S    EENTRO =        -0.00127099
  eigenvalues    EBANDS =      8571.24532379
  atomic energy  EATOM  =    172755.47663999
  Solvation  Ediel_sol  =         0.00000000
  ---------------------------------------------------
  free energy    TOTEN  =     20619.72790376 eV

  energy without entropy =    20619.72917475  energy(sigma->0) =    20619.72853925


--------------------------------------------------------------------------------------------------------




--------------------------------------- Iteration      1(   2)  ---------------------------------------


     EDDAV:  cpu time     51.2733: real time     51.5378
       DOS:  cpu time      0.0039: real time      0.0039
    --------------------------------------------
      LOOP:  cpu time     51.2772: real time     51.5418

 eigenvalue-minimisations  : 14080
 total energy-change (2. order) :-0.1655674E+05  (-0.1588483E+05)
 number of electron    1152.0000000 magnetization 
 augmentation part     1152.0000000 magnetization 

 Free energy of the ion-electron system (eV)
  ---------------------------------------------------
  alpha Z        PSCENC =      2970.02515869
  Ewald energy   TEWEN  =    -87406.17190952
  -Hartree energ DENC   =    -53633.26839162
  -exchange      EXHF   =         0.00000000
  -V(xc)+E(xc)   XCENC  =      4074.08040134
  PAW double counting   =    123183.33653208  -149894.99457999
  entropy T*S    EENTRO =        -0.00229543
  eigenvalues    EBANDS =     -7985.49220026
  atomic energy  EATOM  =    172755.47663999
  Solvation  Ediel_sol  =         0.00000000
  ---------------------------------------------------
  free energy    TOTEN  =      4062.98935527 eV

  energy without entropy =     4062.99165070  energy(sigma->0) =     4062.99050299


--------------------------------------------------------------------------------------------------------




--------------------------------------- Iteration      1(   3)  ---------------------------------------


     EDDAV:  cpu time     51.3735: real time     51.6388
       DOS:  cpu time      0.0041: real time      0.0041
    --------------------------------------------
      LOOP:  cpu time     51.3776: real time     51.6429

 eigenvalue-minimisations  : 14096
 total energy-change (2. order) :-0.3952663E+04  (-0.3738429E+04)
 number of electron    1152.0000000 magnetization 
 augmentation part     1152.0000000 magnetization 

 Free energy of the ion-electron system (eV)
  ---------------------------------------------------
  alpha Z        PSCENC =      2970.02515869
  Ewald energy   TEWEN  =    -87406.17190952
  -Hartree energ DENC   =    -53633.26839162
  -exchange      EXHF   =         0.00000000
  -V(xc)+E(xc)   XCENC  =      4074.08040134
  PAW double counting   =    123183.33653208  -149894.99457999
  entropy T*S    EENTRO =        -0.00201403
  eigenvalues    EBANDS =    -11938.15541297
  atomic energy  EATOM  =    172755.47663999
  Solvation  Ediel_sol  =         0.00000000
  ---------------------------------------------------
  free energy    TOTEN  =       110.32642395 eV

  energy without entropy =      110.32843799  energy(sigma->0) =      110.32743097


--------------------------------------------------------------------------------------------------------




--------------------------------------- Iteration      1(   4)  ---------------------------------------


     EDDAV:  cpu time     58.3660: real time     58.6264
       DOS:  cpu time      0.0021: real time      0.0021
    --------------------------------------------
      LOOP:  cpu time     58.3681: real time     58.6285

 eigenvalue-minimisations  : 16800
 total energy-change (2. order) :-0.6989537E+03  (-0.6500213E+03)
 number of electron    1152.0000000 magnetization 
 augmentation part     1152.0000000 magnetization 

 Free energy of the ion-electron system (eV)
  ---------------------------------------------------
  alpha Z        PSCENC =      2970.02515869
  Ewald energy   TEWEN  =    -87406.17190952
  -Hartree energ DENC   =    -53633.26839162
  -exchange      EXHF   =         0.00000000
  -V(xc)+E(xc)   XCENC  =      4074.08040134
  PAW double counting   =    123183.33653208  -149894.99457999
  entropy T*S    EENTRO =        -0.00000000
  eigenvalues    EBANDS =    -12637.11117668
  atomic energy  EATOM  =    172755.47663999
  Solvation  Ediel_sol  =         0.00000000
  ---------------------------------------------------
  free energy    TOTEN  =      -588.62732572 eV

  energy without entropy =     -588.62732572  energy(sigma->0) =     -588.62732572


--------------------------------------------------------------------------------------------------------




--------------------------------------- Iteration      1(   5)  ---------------------------------------


     EDDAV:  cpu time     57.3651: real time     57.6229
       DOS:  cpu time      0.0019: real time      0.0020
    CHARGE:  cpu time      1.7650: real time      1.7738
    MIXING:  cpu time      0.0111: real time      0.0151
    --------------------------------------------
      LOOP:  cpu time     59.1432: real time     59.4137

 eigenvalue-minimisations  : 16336
 total energy-change (2. order) :-0.4976749E+02  (-0.4884664E+02)
 number of electron    1151.9999761 magnetization 
 augmentation part      524.2317785 magnetization 

 Broyden mixing:
  rms(total) = 0.32353E+01    rms(broyden)= 0.32353E+01
  rms(prec ) = 0.35188E+01
  weight for this iteration     100.00

 Free energy of the ion-electron system (eV)
  ---------------------------------------------------
  alpha Z        PSCENC =      2970.02515869
  Ewald energy   TEWEN  =    -87406.17190952
  -Hartree energ DENC   =    -53633.26839162
  -exchange      EXHF   =         0.00000000
  -V(xc)+E(xc)   XCENC  =      4074.08040134
  PAW double counting   =    123183.33653208  -149894.99457999
  entropy T*S    EENTRO =        -0.00000000
  eigenvalues    EBANDS =    -12686.87866776
  atomic energy  EATOM  =    172755.47663999
  Solvation  Ediel_sol  =         0.00000000
  ---------------------------------------------------
  free energy    TOTEN  =      -638.39481680 eV

  energy without entropy =     -638.39481680  energy(sigma->0) =     -638.39481680


--------------------------------------------------------------------------------------------------------




--------------------------------------- Iteration      1(   6)  ---------------------------------------


    POTLOK:  cpu time      0.2207: real time      0.2247
    SETDIJ:  cpu time      0.0140: real time      0.0141
     EDDAV:  cpu time     62.3985: real time     62.6766
       DOS:  cpu time      0.0021: real time      0.0021
    CHARGE:  cpu time      1.7679: real time      1.7767
    MIXING:  cpu time      0.0027: real time      0.0058
    --------------------------------------------
      LOOP:  cpu time     64.4059: real time     64.7000

 eigenvalue-minimisations  : 18304
 total energy-change (2. order) : 0.2933885E+01  (-0.2272345E+01)
 number of electron    1151.9999761 magnetization 
 augmentation part      524.3677554 magnetization 

 Broyden mixing:
  rms(total) = 0.18114E+01    rms(broyden)= 0.18114E+01
  rms(prec ) = 0.19912E+01
  weight for this iteration     100.00

 eigenvalues of (default mixing * dielectric matrix)
  average eigenvalue GAMMA=   2.2108
  2.2108

 Free energy of the ion-electron system (eV)
  ---------------------------------------------------
  alpha Z        PSCENC =      2970.02515869
  Ewald energy   TEWEN  =    -87406.17190952
  -Hartree energ DENC   =    -53632.21095874
  -exchange      EXHF   =         0.00000000
  -V(xc)+E(xc)   XCENC  =      4074.62009908
  PAW double counting   =    141145.21413336  -167921.25674771
  entropy T*S    EENTRO =        -0.00000000
  eigenvalues    EBANDS =    -12621.15734673
  atomic energy  EATOM  =    172755.47663999
  Solvation  Ediel_sol  =         0.00000000
  ---------------------------------------------------
  free energy    TOTEN  =      -635.46093159 eV

  energy without entropy =     -635.46093159  energy(sigma->0) =     -635.46093159


--------------------------------------------------------------------------------------------------------




--------------------------------------- Iteration      1(   7)  ---------------------------------------


    POTLOK:  cpu time      0.2246: real time      0.2261
    SETDIJ:  cpu time      0.0139: real time      0.0139
     EDDAV:  cpu time     60.8020: real time     61.0738
       DOS:  cpu time      0.0019: real time      0.0019
    CHARGE:  cpu time      1.7483: real time      1.7570
    MIXING:  cpu time      0.0028: real time      0.0028
    --------------------------------------------
      LOOP:  cpu time     62.7935: real time     63.0756

 eigenvalue-minimisations  : 17584
 total energy-change (2. order) : 0.2403095E+01  (-0.4296320E+00)
 number of electron    1151.9999762 magnetization 
 augmentation part      524.7560755 magnetization 

 Broyden mixing:
  rms(total) = 0.20287E+00    rms(broyden)= 0.20287E+00
  rms(prec ) = 0.23139E+00
  weight for this iteration     100.00

 eigenvalues of (default mixing * dielectric matrix)
  average eigenvalue GAMMA=   1.8608
  1.1798  2.5419

 Free energy of the ion-electron system (eV)
  ---------------------------------------------------
  alpha Z        PSCENC =      2970.02515869
  Ewald energy   TEWEN  =    -87406.17190952
  -Hartree energ DENC   =    -53713.84727906
  -exchange      EXHF   =         0.00000000
  -V(xc)+E(xc)   XCENC  =      4079.21617667
  PAW double counting   =    167776.00770558  -194670.04227559
  entropy T*S    EENTRO =        -0.00000000
  eigenvalues    EBANDS =    -12423.72205310
  atomic energy  EATOM  =    172755.47663999
  Solvation  Ediel_sol  =         0.00000000
  ---------------------------------------------------
  free energy    TOTEN  =      -633.05783635 eV

  energy without entropy =     -633.05783635  energy(sigma->0) =     -633.05783635


--------------------------------------------------------------------------------------------------------




--------------------------------------- Iteration      1(   8)  ---------------------------------------


    POTLOK:  cpu time      0.2332: real time      0.2345
    SETDIJ:  cpu time      0.0139: real time      0.0140
     EDDAV:  cpu time     65.2227: real time     65.5135
       DOS:  cpu time      0.0021: real time      0.0021
    CHARGE:  cpu time      1.7483: real time      1.7571
    MIXING:  cpu time      0.0035: real time      0.0046
    --------------------------------------------
      LOOP:  cpu time     67.2237: real time     67.5257

 eigenvalue-minimisations  : 19264
 total energy-change (2. order) :-0.1052512E+00  (-0.4684466E-01)
 number of electron    1151.9999762 magnetization 
 augmentation part      524.7596398 magnetization 

 Broyden mixing:
  rms(total) = 0.95677E-01    rms(broyden)= 0.95677E-01
  rms(prec ) = 0.10169E+00
  weight for this iteration     100.00

 eigenvalues of (default mixing * dielectric matrix)
  average eigenvalue GAMMA=   1.7977
  0.9285  2.4758  1.9888

 Free energy of the ion-electron system (eV)
  ---------------------------------------------------
  alpha Z        PSCENC =      2970.02515869
  Ewald energy   TEWEN  =    -87406.17190952
  -Hartree energ DENC   =    -53738.48255715
  -exchange      EXHF   =         0.00000000
  -V(xc)+E(xc)   XCENC  =      4080.38992060
  PAW double counting   =    170796.57736165  -197708.82706593
  entropy T*S    EENTRO =        -0.00000000
  eigenvalues    EBANDS =    -12382.15063592
  atomic energy  EATOM  =    172755.47663999
  Solvation  Ediel_sol  =         0.00000000
  ---------------------------------------------------
  free energy    TOTEN  =      -633.16308759 eV

  energy without entropy =     -633.16308759  energy(sigma->0) =     -633.16308759


--------------------------------------------------------------------------------------------------------




--------------------------------------- Iteration      1(   9)  ---------------------------------------


    POTLOK:  cpu time      0.2231: real time      0.2243
    SETDIJ:  cpu time      0.0141: real time      0.0142
     EDDAV:  cpu time     59.7983: real time     60.0650
       DOS:  cpu time      0.0019: real time      0.0019
    CHARGE:  cpu time      1.7594: real time      1.7682
    MIXING:  cpu time      0.0028: real time      0.0029
    --------------------------------------------
      LOOP:  cpu time     61.7997: real time     62.0764

 eigenvalue-minimisations  : 17056
 total energy-change (2. order) :-0.3080969E-01  (-0.3077761E-02)
 number of electron    1151.9999762 magnetization 
 augmentation part      524.7514002 magnetization 

 Broyden mixing:
  rms(total) = 0.41059E-01    rms(broyden)= 0.41059E-01
  rms(prec ) = 0.44062E-01
  weight for this iteration     100.00

 eigenvalues of (default mixing * dielectric matrix)
  average eigenvalue GAMMA=   1.7823
  2.3883  2.3883  1.0361  1.3163

 Free energy of the ion-electron system (eV)
  ---------------------------------------------------
  alpha Z        PSCENC =      2970.02515869
  Ewald energy   TEWEN  =    -87406.17190952
  -Hartree energ DENC   =    -53747.58369598
  -exchange      EXHF   =         0.00000000
  -V(xc)+E(xc)   XCENC  =      4080.73275930
  PAW double counting   =    169799.58273967  -196710.17734625
  entropy T*S    EENTRO =        -0.00000000
  eigenvalues    EBANDS =    -12375.07824317
  atomic energy  EATOM  =    172755.47663999
  Solvation  Ediel_sol  =         0.00000000
  ---------------------------------------------------
  free energy    TOTEN  =      -633.19389728 eV

  energy without entropy =     -633.19389728  energy(sigma->0) =     -633.19389728


--------------------------------------------------------------------------------------------------------




--------------------------------------- Iteration      1(  10)  ---------------------------------------


    POTLOK:  cpu time      0.2258: real time      0.2272
    SETDIJ:  cpu time      0.0139: real time      0.0139
     EDDAV:  cpu time     56.6171: real time     56.8685
       DOS:  cpu time      0.0021: real time      0.0021
    CHARGE:  cpu time      1.7573: real time      1.7661
    MIXING:  cpu time      0.0033: real time      0.0033
    --------------------------------------------
      LOOP:  cpu time     58.6196: real time     58.8812

 eigenvalue-minimisations  : 15760
 total energy-change (2. order) :-0.7256933E-02  (-0.7650133E-03)
 number of electron    1151.9999762 magnetization 
 augmentation part      524.7567026 magnetization 

 Broyden mixing:
  rms(total) = 0.14112E-01    rms(broyden)= 0.14112E-01
  rms(prec ) = 0.15661E-01
  weight for this iteration     100.00

 eigenvalues of (default mixing * dielectric matrix)
  average eigenvalue GAMMA=   1.7990
  2.5654  2.5654  1.9023  1.0020  0.9597

 Free energy of the ion-electron system (eV)
  ---------------------------------------------------
  alpha Z        PSCENC =      2970.02515869
  Ewald energy   TEWEN  =    -87406.17190952
  -Hartree energ DENC   =    -53749.37993192
  -exchange      EXHF   =         0.00000000
  -V(xc)+E(xc)   XCENC  =      4080.88652660
  PAW double counting   =    169437.13361931  -196345.19539339
  entropy T*S    EENTRO =        -0.00000000
  eigenvalues    EBANDS =    -12375.97586397
  atomic energy  EATOM  =    172755.47663999
  Solvation  Ediel_sol  =         0.00000000
  ---------------------------------------------------
  free energy    TOTEN  =      -633.20115422 eV

  energy without entropy =     -633.20115422  energy(sigma->0) =     -633.20115422


--------------------------------------------------------------------------------------------------------




--------------------------------------- Iteration      1(  11)  ---------------------------------------


    POTLOK:  cpu time      0.2292: real time      0.2338
    SETDIJ:  cpu time      0.0139: real time      0.0140
     EDDAV:  cpu time     57.5739: real time     57.8284
       DOS:  cpu time      0.0021: real time      0.0022
    CHARGE:  cpu time      1.7669: real time      1.7759
    MIXING:  cpu time      0.0032: real time      0.0033
    --------------------------------------------
      LOOP:  cpu time     59.5894: real time     59.8575

 eigenvalue-minimisations  : 16096
 total energy-change (2. order) :-0.1412153E-02  (-0.2361927E-03)
 number of electron    1151.9999762 magnetization 
 augmentation part      524.7591916 magnetization 

 Broyden mixing:
  rms(total) = 0.33758E-02    rms(broyden)= 0.33757E-02
  rms(prec ) = 0.40952E-02
  weight for this iteration     100.00

 eigenvalues of (default mixing * dielectric matrix)
  average eigenvalue GAMMA=   1.7291
  2.9843  2.5136  1.7129  1.2259  1.0563  0.8815

 Free energy of the ion-electron system (eV)
  ---------------------------------------------------
  alpha Z        PSCENC =      2970.02515869
  Ewald energy   TEWEN  =    -87406.17190952
  -Hartree energ DENC   =    -53750.90493872
  -exchange      EXHF   =         0.00000000
  -V(xc)+E(xc)   XCENC  =      4080.97779572
  PAW double counting   =    169348.47182786  -196255.87699995
  entropy T*S    EENTRO =        -0.00000000
  eigenvalues    EBANDS =    -12375.20014043
  atomic energy  EATOM  =    172755.47663999
  Solvation  Ediel_sol  =         0.00000000
  ---------------------------------------------------
  free energy    TOTEN  =      -633.20256637 eV

  energy without entropy =     -633.20256637  energy(sigma->0) =     -633.20256637


--------------------------------------------------------------------------------------------------------




--------------------------------------- Iteration      1(  12)  ---------------------------------------


    POTLOK:  cpu time      0.2263: real time      0.2279
    SETDIJ:  cpu time      0.0141: real time      0.0141
     EDDAV:  cpu time     58.0216: real time     58.2800
       DOS:  cpu time      0.0021: real time      0.0021
    CHARGE:  cpu time      1.7678: real time      1.7766
    MIXING:  cpu time      0.0033: real time      0.0033
    --------------------------------------------
      LOOP:  cpu time     60.0352: real time     60.3040

 eigenvalue-minimisations  : 16224
 total energy-change (2. order) :-0.1623288E-03  (-0.5578934E-04)
 number of electron    1151.9999762 magnetization 
 augmentation part      524.7597895 magnetization 

 Broyden mixing:
  rms(total) = 0.16932E-02    rms(broyden)= 0.16932E-02
  rms(prec ) = 0.18919E-02
  weight for this iteration     100.00

 eigenvalues of (default mixing * dielectric matrix)
  average eigenvalue GAMMA=   1.7036
  3.0498  2.5301  1.7625  1.7625  1.0800  0.8921  0.8483

 Free energy of the ion-electron system (eV)
  ---------------------------------------------------
  alpha Z        PSCENC =      2970.02515869
  Ewald energy   TEWEN  =    -87406.17190952
  -Hartree energ DENC   =    -53752.16625198
  -exchange      EXHF   =         0.00000000
  -V(xc)+E(xc)   XCENC  =      4081.01823248
  PAW double counting   =    169328.62676461  -196236.29919039
  entropy T*S    EENTRO =        -0.00000000
  eigenvalues    EBANDS =    -12373.71217257
  atomic energy  EATOM  =    172755.47663999
  Solvation  Ediel_sol  =         0.00000000
  ---------------------------------------------------
  free energy    TOTEN  =      -633.20272870 eV

  energy without entropy =     -633.20272870  energy(sigma->0) =     -633.20272870


--------------------------------------------------------------------------------------------------------




--------------------------------------- Iteration      1(  13)  ---------------------------------------


    POTLOK:  cpu time      0.2265: real time      0.2293
    SETDIJ:  cpu time      0.0140: real time      0.0140
     EDDAV:  cpu time     62.1087: real time     62.3840
       DOS:  cpu time      0.0022: real time      0.0022
    CHARGE:  cpu time      1.7690: real time      1.7778
    MIXING:  cpu time      0.0034: real time      0.0034
    --------------------------------------------
      LOOP:  cpu time     64.1239: real time     64.4109

 eigenvalue-minimisations  : 17792
 total energy-change (2. order) :-0.4818570E-04  (-0.2944668E-04)
 number of electron    1151.9999762 magnetization 
 augmentation part      524.7604734 magnetization 

 Broyden mixing:
  rms(total) = 0.99702E-03    rms(broyden)= 0.99698E-03
  rms(prec ) = 0.11103E-02
  weight for this iteration     100.00

 eigenvalues of (default mixing * dielectric matrix)
  average eigenvalue GAMMA=   1.6299
  3.0848  2.5570  1.8976  1.8976  1.1586  0.9119  0.9119  0.6196

 Free energy of the ion-electron system (eV)
  ---------------------------------------------------
  alpha Z        PSCENC =      2970.02515869
  Ewald energy   TEWEN  =    -87406.17190952
  -Hartree energ DENC   =    -53752.75063554
  -exchange      EXHF   =         0.00000000
  -V(xc)+E(xc)   XCENC  =      4081.03381942
  PAW double counting   =    169338.14961938  -196246.04166922
  entropy T*S    EENTRO =        -0.00000000
  eigenvalues    EBANDS =    -12372.92380008
  atomic energy  EATOM  =    172755.47663999
  Solvation  Ediel_sol  =         0.00000000
  ---------------------------------------------------
  free energy    TOTEN  =      -633.20277688 eV

  energy without entropy =     -633.20277688  energy(sigma->0) =     -633.20277688


--------------------------------------------------------------------------------------------------------




--------------------------------------- Iteration      1(  14)  ---------------------------------------


    POTLOK:  cpu time      0.2256: real time      0.2290
    SETDIJ:  cpu time      0.0147: real time      0.0148
     EDDAV:  cpu time     61.8835: real time     62.1587
       DOS:  cpu time      0.0022: real time      0.0022
    CHARGE:  cpu time      1.7690: real time      1.7779
    MIXING:  cpu time      0.0039: real time      0.0039
    --------------------------------------------
      LOOP:  cpu time     63.8988: real time     64.1862

 eigenvalue-minimisations  : 17680
 total energy-change (2. order) :-0.9674754E-05  (-0.6296862E-05)
 number of electron    1151.9999762 magnetization 
 augmentation part      524.7606847 magnetization 

 Broyden mixing:
  rms(total) = 0.50366E-03    rms(broyden)= 0.50365E-03
  rms(prec ) = 0.55175E-03
  weight for this iteration     100.00

 eigenvalues of (default mixing * dielectric matrix)
  average eigenvalue GAMMA=   1.6062
  3.2635  2.5972  2.3180  1.4553  1.4553  0.9928  0.9928  0.7669  0.6141

 Free energy of the ion-electron system (eV)
  ---------------------------------------------------
  alpha Z        PSCENC =      2970.02515869
  Ewald energy   TEWEN  =    -87406.17190952
  -Hartree energ DENC   =    -53752.77367994
  -exchange      EXHF   =         0.00000000
  -V(xc)+E(xc)   XCENC  =      4081.03507130
  PAW double counting   =    169343.46746933  -196251.32650852
  entropy T*S    EENTRO =        -0.00000000
  eigenvalues    EBANDS =    -12372.93502788
  atomic energy  EATOM  =    172755.47663999
  Solvation  Ediel_sol  =         0.00000000
  ---------------------------------------------------
  free energy    TOTEN  =      -633.20278656 eV

  energy without entropy =     -633.20278656  energy(sigma->0) =     -633.20278656


--------------------------------------------------------------------------------------------------------




--------------------------------------- Iteration      1(  15)  ---------------------------------------


    POTLOK:  cpu time      0.2280: real time      0.2297
    SETDIJ:  cpu time      0.0143: real time      0.0143
     EDDAV:  cpu time     62.1356: real time     62.4119
       DOS:  cpu time      0.0021: real time      0.0021
    CHARGE:  cpu time      1.7782: real time      1.7870
    MIXING:  cpu time      0.0037: real time      0.0037
    --------------------------------------------
      LOOP:  cpu time     64.1619: real time     64.4487

 eigenvalue-minimisations  : 17744
 total energy-change (2. order) :-0.2689019E-05  (-0.1986441E-05)
 number of electron    1151.9999762 magnetization 
 augmentation part      524.7609389 magnetization 

 Broyden mixing:
  rms(total) = 0.31538E-03    rms(broyden)= 0.31537E-03
  rms(prec ) = 0.32096E-03
  weight for this iteration     100.00

 eigenvalues of (default mixing * dielectric matrix)
  average eigenvalue GAMMA=   1.5616
  3.2348  2.5734  2.1499  1.9680  1.2066  1.0956  1.0956  0.8688  0.8688  0.5544

 Free energy of the ion-electron system (eV)
  ---------------------------------------------------
  alpha Z        PSCENC =      2970.02515869
  Ewald energy   TEWEN  =    -87406.17190952
  -Hartree energ DENC   =    -53752.75218542
  -exchange      EXHF   =         0.00000000
  -V(xc)+E(xc)   XCENC  =      4081.03503908
  PAW double counting   =    169346.49541205  -196254.29776632
  entropy T*S    EENTRO =        -0.00000000
  eigenvalues    EBANDS =    -12373.01317779
  atomic energy  EATOM  =    172755.47663999
  Solvation  Ediel_sol  =         0.00000000
  ---------------------------------------------------
  free energy    TOTEN  =      -633.20278925 eV

  energy without entropy =     -633.20278925  energy(sigma->0) =     -633.20278925


--------------------------------------------------------------------------------------------------------




--------------------------------------- Iteration      1(  16)  ---------------------------------------


    POTLOK:  cpu time      0.2268: real time      0.2314
    SETDIJ:  cpu time      0.0141: real time      0.0142
     EDDAV:  cpu time     58.5243: real time     58.7838
       DOS:  cpu time      0.0021: real time      0.0021
    CHARGE:  cpu time      1.7728: real time      1.7816
    MIXING:  cpu time      0.0036: real time      0.0036
    --------------------------------------------
      LOOP:  cpu time     60.5436: real time     60.8167

 eigenvalue-minimisations  : 16304
 total energy-change (2. order) :-0.2556189E-06  (-0.8804992E-06)
 number of electron    1151.9999762 magnetization 
 augmentation part      524.7609426 magnetization 

 Broyden mixing:
  rms(total) = 0.18506E-03    rms(broyden)= 0.18506E-03
  rms(prec ) = 0.19508E-03
  weight for this iteration     100.00

 eigenvalues of (default mixing * dielectric matrix)
  average eigenvalue GAMMA=   1.5125
  3.1731  2.5637  2.2435  2.2435  1.1963  1.1963  1.1677  0.9134  0.9134  0.5967
  0.4300

 Free energy of the ion-electron system (eV)
  ---------------------------------------------------
  alpha Z        PSCENC =      2970.02515869
  Ewald energy   TEWEN  =    -87406.17190952
  -Hartree energ DENC   =    -53752.74322327
  -exchange      EXHF   =         0.00000000
  -V(xc)+E(xc)   XCENC  =      4081.03443465
  PAW double counting   =    169349.21591345  -196257.01967330
  entropy T*S    EENTRO =        -0.00000000
  eigenvalues    EBANDS =    -12373.02013019
  atomic energy  EATOM  =    172755.47663999
  Solvation  Ediel_sol  =         0.00000000
  ---------------------------------------------------
  free energy    TOTEN  =      -633.20278950 eV

  energy without entropy =     -633.20278950  energy(sigma->0) =     -633.20278950


--------------------------------------------------------------------------------------------------------




--------------------------------------- Iteration      1(  17)  ---------------------------------------


    POTLOK:  cpu time      0.2228: real time      0.2265
    SETDIJ:  cpu time      0.0146: real time      0.0146
     EDDAV:  cpu time     51.3209: real time     51.5482
       DOS:  cpu time      0.0022: real time      0.0022
    CHARGE:  cpu time      1.7776: real time      1.7865
    MIXING:  cpu time      0.0041: real time      0.0041
    --------------------------------------------
      LOOP:  cpu time     53.3422: real time     53.5821

 eigenvalue-minimisations  : 13408
 total energy-change (2. order) : 0.8975621E-07  (-0.4551612E-07)
 number of electron    1151.9999762 magnetization 
 augmentation part      524.7609470 magnetization 

 Broyden mixing:
  rms(total) = 0.81929E-04    rms(broyden)= 0.81929E-04
  rms(prec ) = 0.88589E-04
  weight for this iteration     100.00

 eigenvalues of (default mixing * dielectric matrix)
  average eigenvalue GAMMA=   1.5718
  3.2735  2.6664  2.5566  2.3631  1.6499  1.1607  1.1607  1.0928  0.9660  0.8283
  0.6500  0.4942

 Free energy of the ion-electron system (eV)
  ---------------------------------------------------
  alpha Z        PSCENC =      2970.02515869
  Ewald energy   TEWEN  =    -87406.17190952
  -Hartree energ DENC   =    -53752.73483163
  -exchange      EXHF   =         0.00000000
  -V(xc)+E(xc)   XCENC  =      4081.03407851
  PAW double counting   =    169350.61401547  -196258.42006069
  entropy T*S    EENTRO =        -0.00000000
  eigenvalues    EBANDS =    -12373.02588023
  atomic energy  EATOM  =    172755.47663999
  Solvation  Ediel_sol  =         0.00000000
  ---------------------------------------------------
  free energy    TOTEN  =      -633.20278941 eV

  energy without entropy =     -633.20278941  energy(sigma->0) =     -633.20278941


--------------------------------------------------------------------------------------------------------




--------------------------------------- Iteration      1(  18)  ---------------------------------------


    POTLOK:  cpu time      0.2249: real time      0.2292
    SETDIJ:  cpu time      0.0146: real time      0.0147
     EDDAV:  cpu time     75.3038: real time     75.6392
       DOS:  cpu time      0.0022: real time      0.0022
    CHARGE:  cpu time      1.7765: real time      1.7853
    MIXING:  cpu time      0.0044: real time      0.0044
    --------------------------------------------
      LOOP:  cpu time     77.3264: real time     77.6750

 eigenvalue-minimisations  : 22832
 total energy-change (2. order) : 0.1839362E-07  (-0.2543172E-07)
 number of electron    1151.9999762 magnetization 
 augmentation part      524.7609374 magnetization 

 Broyden mixing:
  rms(total) = 0.37068E-04    rms(broyden)= 0.37067E-04
  rms(prec ) = 0.38503E-04
  weight for this iteration     100.00

 eigenvalues of (default mixing * dielectric matrix)
  average eigenvalue GAMMA=   1.4644
  3.2860  2.6566  2.5020  2.3743  1.6297  1.1578  1.1578  1.0818  0.9734  0.8290
  0.6497  0.4928  0.2456

 Free energy of the ion-electron system (eV)
  ---------------------------------------------------
  alpha Z        PSCENC =      2970.02515869
  Ewald energy   TEWEN  =    -87406.17190952
  -Hartree energ DENC   =    -53752.73146042
  -exchange      EXHF   =         0.00000000
  -V(xc)+E(xc)   XCENC  =      4081.03408979
  PAW double counting   =    169351.34122574  -196259.14821752
  entropy T*S    EENTRO =        -0.00000000
  eigenvalues    EBANDS =    -12373.02831613
  atomic energy  EATOM  =    172755.47663999
  Solvation  Ediel_sol  =         0.00000000
  ---------------------------------------------------
  free energy    TOTEN  =      -633.20278940 eV

  energy without entropy =     -633.20278940  energy(sigma->0) =     -633.20278940


--------------------------------------------------------------------------------------------------------




--------------------------------------- Iteration      1(  19)  ---------------------------------------


    POTLOK:  cpu time      0.2241: real time      0.2257
    SETDIJ:  cpu time      0.0141: real time      0.0142
     EDDAV:  cpu time     50.1556: real time     50.3776
       DOS:  cpu time      0.0022: real time      0.0022
    CHARGE:  cpu time      1.7875: real time      1.7968
    MIXING:  cpu time      0.0040: real time      0.0040
    --------------------------------------------
      LOOP:  cpu time     52.1874: real time     52.4205

 eigenvalue-minimisations  : 12912
 total energy-change (2. order) :-0.7823110E-07  (-0.8662263E-07)
 number of electron    1151.9999762 magnetization 
 augmentation part      524.7609617 magnetization 

 Broyden mixing:
  rms(total) = 0.59893E-04    rms(broyden)= 0.59890E-04
  rms(prec ) = 0.63783E-04
  weight for this iteration     100.00

 eigenvalues of (default mixing * dielectric matrix)
  average eigenvalue GAMMA=   1.3683
  3.2856  2.6259  2.4229  2.4229  1.6184  1.1562  1.1562  1.0754  0.9822  0.8363
  0.6459  0.4934  0.2173  0.2173

 Free energy of the ion-electron system (eV)
  ---------------------------------------------------
  alpha Z        PSCENC =      2970.02515869
  Ewald energy   TEWEN  =    -87406.17190952
  -Hartree energ DENC   =    -53752.73151632
  -exchange      EXHF   =         0.00000000
  -V(xc)+E(xc)   XCENC  =      4081.03409197
  PAW double counting   =    169351.32592772  -196259.13253060
  entropy T*S    EENTRO =        -0.00000000
  eigenvalues    EBANDS =    -12373.02865140
  atomic energy  EATOM  =    172755.47663999
  Solvation  Ediel_sol  =         0.00000000
  ---------------------------------------------------
  free energy    TOTEN  =      -633.20278947 eV

  energy without entropy =     -633.20278947  energy(sigma->0) =     -633.20278947


--------------------------------------------------------------------------------------------------------




--------------------------------------- Iteration      1(  20)  ---------------------------------------


    POTLOK:  cpu time      0.2269: real time      0.2300
    SETDIJ:  cpu time      0.0144: real time      0.0144
     EDDAV:  cpu time     39.5562: real time     39.7325
       DOS:  cpu time      0.0022: real time      0.0022
    --------------------------------------------
      LOOP:  cpu time     39.7996: real time     39.9790

 eigenvalue-minimisations  :  8656
 total energy-change (2. order) :-0.4249159E-08  (-0.4076000E-09)
 number of electron    1151.9999762 magnetization 
 augmentation part      524.7609617 magnetization 

 Free energy of the ion-electron system (eV)
  ---------------------------------------------------
  alpha Z        PSCENC =      2970.02515869
  Ewald energy   TEWEN  =    -87406.17190952
  -Hartree energ DENC   =    -53752.73153752
  -exchange      EXHF   =         0.00000000
  -V(xc)+E(xc)   XCENC  =      4081.03409081
  PAW double counting   =    169351.27420071  -196259.08035166
  entropy T*S    EENTRO =        -0.00000000
  eigenvalues    EBANDS =    -12373.02908097
  atomic energy  EATOM  =    172755.47663999
  Solvation  Ediel_sol  =         0.00000000
  ---------------------------------------------------
  free energy    TOTEN  =      -633.20278948 eV

  energy without entropy =     -633.20278948  energy(sigma->0) =     -633.20278948


--------------------------------------------------------------------------------------------------------




 average (electrostatic) potential at core
  the test charge radii are     0.9892  0.9911
  (the norm of the test charge is              1.0000)
       1 -84.4577       2 -84.4578       3 -84.4577       4 -84.4576       5 -84.4560
       6 -84.4577       7 -84.4577       8 -84.4593       9 -84.4568      10 -84.4577
      11 -84.4586      12 -84.4577      13 -84.4559      14 -84.4594      15 -84.4578
      16 -84.4575      17 -84.4560      18 -84.4577      19 -84.4577      20 -84.4593
      21 -84.4574      22 -84.4577      23 -84.4580      24 -84.4577      25 -84.4574
      26 -84.4580      27 -84.4577      28 -84.4576      29 -84.4577      30 -84.4578
      31 -84.4577      32 -84.4576      33 -84.4568      34 -84.4577      35 -84.4586
      36 -84.4577      37 -84.4574      38 -84.4580      39 -84.4577      40 -84.4576
      41 -84.4577      42 -84.4577      43 -84.4577      44 -84.4577      45 -84.4574
      46 -84.4576      47 -84.4577      48 -84.4580      49 -84.4559      50 -84.4594
      51 -84.4578      52 -84.4575      53 -84.4577      54 -84.4578      55 -84.4577
      56 -84.4576      57 -84.4574      58 -84.4576      59 -84.4577      60 -84.4580
      61 -84.4573      62 -84.4577      63 -84.4581      64 -84.4577      65 -73.8562
      66 -73.8561      67 -73.8565      68 -73.8557      69 -73.8561      70 -73.8564
      71 -73.8561      72 -73.8558      73 -73.8566      74 -73.8562      75 -73.8561
      76 -73.8557      77 -73.8562      78 -73.8562      79 -73.8561      80 -73.8562
      81 -73.8561      82 -73.8564      83 -73.8561      84 -73.8558      85 -73.8564
      86 -73.8562      87 -73.8560      88 -73.8559      89 -73.8562      90 -73.8561
      91 -73.8561      92 -73.8562      93 -73.8561      94 -73.8562      95 -73.8572
      96 -73.8551      97 -73.8566      98 -73.8562      99 -73.8561     100 -73.8557
     101 -73.8562     102 -73.8561     103 -73.8561     104 -73.8562     105 -73.8561
     106 -73.8562     107 -73.8563     108 -73.8558     109 -73.8561     110 -73.8572
     111 -73.8561     112 -73.8552     113 -73.8562     114 -73.8562     115 -73.8561
     116 -73.8562     117 -73.8561     118 -73.8562     119 -73.8572     120 -73.8551
     121 -73.8561     122 -73.8572     123 -73.8561     124 -73.8552     125 -73.8595
     126 -73.8560     127 -73.8561     128 -73.8528
 
 
 
 E-fermi :   5.2164     XC(G=0):  -9.5684     alpha+bet :-10.8470

 val. band max:        5.1107832099   @ k =   0.0000   0.0000   0.0000
 cond. band min:       5.7216892761   @ k =   0.0000   0.3333   0.3333
 fundamental gap:      0.6109060662
 Fermi energy:         5.2163955223

 k-point     1 :       0.0000    0.0000    0.0000
  band No.  band energies     occupation 
      1     -19.2243      2.00000
      2     -19.2243      2.00000
      3     -19.2242      2.00000
      4     -19.2216      2.00000
      5     -19.2215      2.00000
      6     -19.2215      2.00000
      7     -19.2211      2.00000
      8     -19.2210      2.00000
      9     -19.2210      2.00000
     10     -19.2207      2.00000
     11     -19.2207      2.00000
     12     -19.2206      2.00000
     13     -19.2203      2.00000
     14     -19.2203      2.00000
     15     -19.2202      2.00000
     16     -19.2202      2.00000
     17     -19.2202      2.00000
     18     -19.2201      2.00000
     19     -19.2201      2.00000
     20     -19.2201      2.00000
     21     -19.2201      2.00000
     22     -19.2201      2.00000
     23     -19.2201      2.00000
     24     -19.2201      2.00000
     25     -19.2201      2.00000
     26     -19.2200      2.00000
     27     -19.2200      2.00000
     28     -19.2199      2.00000
     29     -19.2199      2.00000
     30     -19.2199      2.00000
     31     -19.2198      2.00000
     32     -19.2198      2.00000
     33     -19.2198      2.00000
     34     -19.2190      2.00000
     35     -19.2190      2.00000
     36     -19.2189      2.00000
     37     -19.2188      2.00000
     38     -19.2188      2.00000
     39     -19.2188      2.00000
     40     -19.2186      2.00000
     41     -19.2183      2.00000
     42     -19.2181      2.00000
     43     -19.2181      2.00000
     44     -19.2180      2.00000
     45     -19.2180      2.00000
     46     -19.2180      2.00000
     47     -19.2179      2.00000
     48     -19.2179      2.00000
     49     -19.2179      2.00000
     50     -19.2179      2.00000
     51     -19.2178      2.00000
     52     -19.2178      2.00000
     53     -19.2177      2.00000
     54     -19.2177      2.00000
     55     -19.2176      2.00000
     56     -19.2176      2.00000
     57     -19.2176      2.00000
     58     -19.2176      2.00000
     59     -19.2176      2.00000
     60     -19.2176      2.00000
     61     -19.2175      2.00000
     62     -19.2175      2.00000
     63     -19.2175      2.00000
     64     -19.2173      2.00000
     65     -19.2172      2.00000
     66     -19.2171      2.00000
     67     -19.2158      2.00000
     68     -19.2158      2.00000
     69     -19.2156      2.00000
     70     -19.2155      2.00000
     71     -19.2154      2.00000
     72     -19.2154      2.00000
     73     -19.2154      2.00000
     74     -19.2154      2.00000
     75     -19.2154      2.00000
     76     -19.2154      2.00000
     77     -19.2153      2.00000
     78     -19.2153      2.00000
     79     -19.2152      2.00000
     80     -19.2151      2.00000
     81     -19.2151      2.00000
     82     -19.2151      2.00000
     83     -19.2138      2.00000
     84     -19.2138      2.00000
     85     -19.2137      2.00000
     86     -19.2134      2.00000
     87     -19.2134      2.00000
     88     -19.2133      2.00000
     89     -19.2133      2.00000
     90     -19.2133      2.00000
     91     -19.2133      2.00000
     92     -19.2133      2.00000
     93     -19.2132      2.00000
     94     -19.2132      2.00000
     95     -19.2132      2.00000
     96     -19.2132      2.00000
     97     -19.2131      2.00000
     98     -19.2131      2.00000
     99     -19.2131      2.00000
    100     -19.2131      2.00000
    101     -19.2131      2.00000
    102     -19.2130      2.00000
    103     -19.2129      2.00000
    104     -19.2129      2.00000
    105     -19.2128      2.00000
    106     -19.2128      2.00000
    107     -19.2128      2.00000
    108     -19.2128      2.00000
    109     -19.2127      2.00000
    110     -19.2127      2.00000
    111     -19.2127      2.00000
    112     -19.2127      2.00000
    113     -19.2127      2.00000
    114     -19.2126      2.00000
    115     -19.2126      2.00000
    116     -19.2126      2.00000
    117     -19.2126      2.00000
    118     -19.2126      2.00000
    119     -19.2126      2.00000
    120     -19.2125      2.00000
    121     -19.2124      2.00000
    122     -19.2124      2.00000
    123     -19.2124      2.00000
    124     -19.2124      2.00000
    125     -19.2123      2.00000
    126     -19.2123      2.00000
    127     -19.2123      2.00000
    128     -19.2122      2.00000
    129     -19.2122      2.00000
    130     -19.2120      2.00000
    131     -19.2119      2.00000
    132     -19.2119      2.00000
    133     -19.2114      2.00000
    134     -19.2113      2.00000
    135     -19.2113      2.00000
    136     -19.2112      2.00000
    137     -19.2112      2.00000
    138     -19.2112      2.00000
    139     -19.2111      2.00000
    140     -19.2111      2.00000
    141     -19.2111      2.00000
    142     -19.2111      2.00000
    143     -19.2110      2.00000
    144     -19.2110      2.00000
    145     -19.2110      2.00000
    146     -19.2110      2.00000
    147     -19.2110      2.00000
    148     -19.2109      2.00000
    149     -19.2109      2.00000
    150     -19.2109      2.00000
    151     -19.2109      2.00000
    152     -19.2108      2.00000
    153     -19.2108      2.00000
    154     -19.2106      2.00000
    155     -19.2105      2.00000
    156     -19.2104      2.00000
    157     -19.2104      2.00000
    158     -19.2103      2.00000
    159     -19.2103      2.00000
    160     -19.2102      2.00000
    161     -19.2102      2.00000
    162     -19.2102      2.00000
    163     -19.2101      2.00000
    164     -19.2101      2.00000
    165     -19.2101      2.00000
    166     -19.2101      2.00000
    167     -19.2100      2.00000
    168     -19.2100      2.00000
    169     -19.2100      2.00000
    170     -19.2100      2.00000
    171     -19.2100      2.00000
    172     -19.2100      2.00000
    173     -19.2099      2.00000
    174     -19.2099      2.00000
    175     -19.2098      2.00000
    176     -19.2098      2.00000
    177     -19.2098      2.00000
    178     -19.2091      2.00000
    179     -19.2091      2.00000
    180     -19.2089      2.00000
    181     -19.2074      2.00000
    182     -19.2074      2.00000
    183     -19.2073      2.00000
    184     -19.2072      2.00000
    185     -19.2072      2.00000
    186     -19.2072      2.00000
    187     -19.2072      2.00000
    188     -19.2072      2.00000
    189     -19.2072      2.00000
    190     -19.2069      2.00000
    191     -19.2067      2.00000
    192     -19.2066      2.00000
    193     -19.1967      2.00000
    194     -19.1967      2.00000
    195     -19.1963      2.00000
    196     -19.1957      2.00000
    197     -19.1956      2.00000
    198     -19.1946      2.00000
    199     -19.1946      2.00000
    200     -19.1945      2.00000
    201     -19.1944      2.00000
    202     -19.1943      2.00000
    203     -19.1943      2.00000
    204     -19.1943      2.00000
    205     -19.1942      2.00000
    206     -19.1942      2.00000
    207     -19.1942      2.00000
    208     -19.1941      2.00000
    209     -19.1941      2.00000
    210     -19.1940      2.00000
    211     -19.1940      2.00000
    212     -19.1940      2.00000
    213     -19.1940      2.00000
    214     -19.1940      2.00000
    215     -19.1940      2.00000
    216     -19.1939      2.00000
    217     -19.1939      2.00000
    218     -19.1939      2.00000
    219     -19.1939      2.00000
    220     -19.1939      2.00000
    221     -19.1939      2.00000
    222     -19.1938      2.00000
    223     -19.1938      2.00000
    224     -19.1938      2.00000
    225     -19.1938      2.00000
    226     -19.1937      2.00000
    227     -19.1937      2.00000
    228     -19.1936      2.00000
    229     -19.1936      2.00000
    230     -19.1935      2.00000
    231     -19.1934      2.00000
    232     -19.1929      2.00000
    233     -19.1928      2.00000
    234     -19.1925      2.00000
    235     -19.1924      2.00000
    236     -19.1923      2.00000
    237     -19.1922      2.00000
    238     -19.1922      2.00000
    239     -19.1922      2.00000
    240     -19.1921      2.00000
    241     -19.1921      2.00000
    242     -19.1921      2.00000
    243     -19.1921      2.00000
    244     -19.1920      2.00000
    245     -19.1920      2.00000
    246     -19.1920      2.00000
    247     -19.1920      2.00000
    248     -19.1919      2.00000
    249     -19.1919      2.00000
    250     -19.1919      2.00000
    251     -19.1919      2.00000
    252     -19.1919      2.00000
    253     -19.1919      2.00000
    254     -19.1918      2.00000
    255     -19.1918      2.00000
    256     -19.1918      2.00000
    257     -19.1918      2.00000
    258     -19.1918      2.00000
    259     -19.1917      2.00000
    260     -19.1917      2.00000
    261     -19.1917      2.00000
    262     -19.1917      2.00000
    263     -19.1916      2.00000
    264     -19.1916      2.00000
    265     -19.1916      2.00000
    266     -19.1915      2.00000
    267     -19.1915      2.00000
    268     -19.1915      2.00000
    269     -19.1915      2.00000
    270     -19.1914      2.00000
    271     -19.1914      2.00000
    272     -19.1913      2.00000
    273     -19.1912      2.00000
    274     -19.1912      2.00000
    275     -19.1912      2.00000
    276     -19.1911      2.00000
    277     -19.1911      2.00000
    278     -19.1911      2.00000
    279     -19.1911      2.00000
    280     -19.1908      2.00000
    281     -19.1907      2.00000
    282     -19.1904      2.00000
    283     -19.1903      2.00000
    284     -19.1903      2.00000
    285     -19.1902      2.00000
    286     -19.1902      2.00000
    287     -19.1901      2.00000
    288     -19.1901      2.00000
    289     -19.1901      2.00000
    290     -19.1900      2.00000
    291     -19.1900      2.00000
    292     -19.1899      2.00000
    293     -19.1899      2.00000
    294     -19.1899      2.00000
    295     -19.1898      2.00000
    296     -19.1898      2.00000
    297     -19.1898      2.00000
    298     -19.1898      2.00000
    299     -19.1898      2.00000
    300     -19.1898      2.00000
    301     -19.1898      2.00000
    302     -19.1897      2.00000
    303     -19.1897      2.00000
    304     -19.1897      2.00000
    305     -19.1897      2.00000
    306     -19.1897      2.00000
    307     -19.1896      2.00000
    308     -19.1896      2.00000
    309     -19.1896      2.00000
    310     -19.1895      2.00000
    311     -19.1895      2.00000
    312     -19.1894      2.00000
    313     -19.1894      2.00000
    314     -19.1893      2.00000
    315     -19.1893      2.00000
    316     -19.1883      2.00000
    317     -19.1883      2.00000
    318     -19.1879      2.00000
    319     -19.1874      2.00000
    320     -19.1873      2.00000
    321      -7.0785      2.00000
    322      -6.3352      2.00000
    323      -6.3340      2.00000
    324      -6.3339      2.00000
    325      -6.3339      2.00000
    326      -6.3339      2.00000
    327      -6.3339      2.00000
    328      -6.3338      2.00000
    329      -6.3326      2.00000
    330      -6.0685      2.00000
    331      -6.0675      2.00000
    332      -6.0675      2.00000
    333      -6.0675      2.00000
    334      -6.0675      2.00000
    335      -6.0665      2.00000
    336      -5.1940      2.00000
    337      -5.1919      2.00000
    338      -5.1919      2.00000
    339      -5.1918      2.00000
    340      -5.1918      2.00000
    341      -5.1917      2.00000
    342      -5.1917      2.00000
    343      -5.1917      2.00000
    344      -5.1917      2.00000
    345      -5.1916      2.00000
    346      -5.1916      2.00000
    347      -5.1895      2.00000
    348      -4.9753      2.00000
    349      -4.9745      2.00000
    350      -4.9745      2.00000
    351      -4.9738      2.00000
    352      -4.5918      2.00000
    353      -4.5874      2.00000
    354      -4.5873      2.00000
    355      -4.5873      2.00000
    356      -4.5872      2.00000
    357      -4.5872      2.00000
    358      -4.5872      2.00000
    359      -4.5872      2.00000
    360      -4.5871      2.00000
    361      -4.5871      2.00000
    362      -4.5870      2.00000
    363      -4.5870      2.00000
    364      -4.5870      2.00000
    365      -4.5870      2.00000
    366      -4.5870      2.00000
    367      -4.5870      2.00000
    368      -4.5869      2.00000
    369      -4.5869      2.00000
    370      -4.5869      2.00000
    371      -4.5868      2.00000
    372      -4.5868      2.00000
    373      -4.5868      2.00000
    374      -4.5867      2.00000
    375      -4.5823      2.00000
    376      -3.5634      2.00000
    377      -3.5628      2.00000
    378      -3.5623      2.00000
    379      -3.4751      2.00000
    380      -3.4741      2.00000
    381      -3.4740      2.00000
    382      -3.4740      2.00000
    383      -3.4739      2.00000
    384      -3.4729      2.00000
    385      -2.7380      2.00000
    386      -2.7380      2.00000
    387      -2.7380      2.00000
    388      -2.5870      2.00000
    389      -2.5869      2.00000
    390      -2.5869      2.00000
    391      -2.5869      2.00000
    392      -2.5868      2.00000
    393      -2.5867      2.00000
    394      -1.9891      2.00000
    395      -1.9884      2.00000
    396      -1.9884      2.00000
    397      -1.9876      2.00000
    398      -1.6362      2.00000
    399      -1.6326      2.00000
    400      -1.6325      2.00000
    401      -1.6322      2.00000
    402      -1.6322      2.00000
    403      -1.6320      2.00000
    404      -1.6320      2.00000
    405      -1.6319      2.00000
    406      -1.6319      2.00000
    407      -1.6319      2.00000
    408      -1.6319      2.00000
    409      -1.6319      2.00000
    410      -1.6319      2.00000
    411      -1.6319      2.00000
    412      -1.6318      2.00000
    413      -1.6318      2.00000
    414      -1.6318      2.00000
    415      -1.6318      2.00000
    416      -1.6317      2.00000
    417      -1.6316      2.00000
    418      -1.6315      2.00000
    419      -1.6313      2.00000
    420      -1.6311      2.00000
    421      -1.6276      2.00000
    422      -0.7972      2.00000
    423      -0.7956      2.00000
    424      -0.7954      2.00000
    425      -0.7953      2.00000
    426      -0.7952      2.00000
    427      -0.7952      2.00000
    428      -0.7952      2.00000
    429      -0.7952      2.00000
    430      -0.7951      2.00000
    431      -0.7950      2.00000
    432      -0.7948      2.00000
    433      -0.7932      2.00000
    434       0.8764      2.00000
    435       0.8772      2.00000
    436       0.8776      2.00000
    437       0.8776      2.00000
    438       0.8776      2.00000
    439       0.8776      2.00000
    440       0.8781      2.00000
    441       0.8788      2.00000
    442       1.0277      2.00000
    443       1.0286      2.00000
    444       1.0287      2.00000
    445       1.0287      2.00000
    446       1.0288      2.00000
    447       1.0297      2.00000
    448       1.3201      2.00000
    449       1.3203      2.00000
    450       1.3208      2.00000
    451       1.3208      2.00000
    452       1.3213      2.00000
    453       1.3214      2.00000
    454       1.3871      2.00000
    455       1.3872      2.00000
    456       1.3873      2.00000
    457       1.3873      2.00000
    458       1.3874      2.00000
    459       1.3874      2.00000
    460       1.4139      2.00000
    461       1.4141      2.00000
    462       1.4141      2.00000
    463       1.4148      2.00000
    464       1.4148      2.00000
    465       1.4148      2.00000
    466       1.4148      2.00000
    467       1.4149      2.00000
    468       1.4149      2.00000
    469       1.4155      2.00000
    470       1.4156      2.00000
    471       1.4158      2.00000
    472       1.5751      2.00000
    473       1.5754      2.00000
    474       1.5760      2.00000
    475       1.5768      2.00000
    476       1.5769      2.00000
    477       1.5770      2.00000
    478       1.5770      2.00000
    479       1.5770      2.00000
    480       1.5771      2.00000
    481       1.5771      2.00000
    482       1.5771      2.00000
    483       1.5771      2.00000
    484       1.5771      2.00000
    485       1.5771      2.00000
    486       1.5772      2.00000
    487       1.5772      2.00000
    488       1.5773      2.00000
    489       1.5773      2.00000
    490       1.5773      2.00000
    491       1.5774      2.00000
    492       1.5774      2.00000
    493       1.5782      2.00000
    494       1.5789      2.00000
    495       1.5792      2.00000
    496       2.2206      2.00000
    497       2.2209      2.00000
    498       2.2210      2.00000
    499       2.2210      2.00000
    500       2.2211      2.00000
    501       2.2214      2.00000
    502       2.8612      2.00000
    503       2.8627      2.00000
    504       2.8633      2.00000
    505       2.8633      2.00000
    506       2.8637      2.00000
    507       2.8637      2.00000
    508       2.8638      2.00000
    509       2.8638      2.00000
    510       2.8638      2.00000
    511       2.8638      2.00000
    512       2.8639      2.00000
    513       2.8639      2.00000
    514       2.8639      2.00000
    515       2.8639      2.00000
    516       2.8639      2.00000
    517       2.8639      2.00000
    518       2.8639      2.00000
    519       2.8639      2.00000
    520       2.8640      2.00000
    521       2.8641      2.00000
    522       2.8644      2.00000
    523       2.8644      2.00000
    524       2.8650      2.00000
    525       2.8665      2.00000
    526       3.1978      2.00000
    527       3.1990      2.00000
    528       3.1991      2.00000
    529       3.1993      2.00000
    530       3.1994      2.00000
    531       3.1994      2.00000
    532       3.1994      2.00000
    533       3.1994      2.00000
    534       3.1995      2.00000
    535       3.1997      2.00000
    536       3.1999      2.00000
    537       3.2010      2.00000
    538       3.7234      2.00000
    539       3.7245      2.00000
    540       3.7250      2.00000
    541       3.7250      2.00000
    542       3.7251      2.00000
    543       3.7252      2.00000
    544       3.7252      2.00000
    545       3.7253      2.00000
    546       3.7254      2.00000
    547       3.7254      2.00000
    548       3.7259      2.00000
    549       3.7269      2.00000
    550       3.8300      2.00000
    551       3.8309      2.00000
    552       3.8312      2.00000
    553       3.8312      2.00000
    554       3.8314      2.00000
    555       3.8314      2.00000
    556       3.8317      2.00000
    557       3.8326      2.00000
    558       4.3037      2.00000
    559       4.3063      2.00000
    560       4.3064      2.00000
    561       4.3064      2.00000
    562       4.3067      2.00000
    563       4.3067      2.00000
    564       4.3067      2.00000
    565       4.3067      2.00000
    566       4.3068      2.00000
    567       4.3068      2.00000
    568       4.3068      2.00000
    569       4.3068      2.00000
    570       4.3071      2.00000
    571       4.3071      2.00000
    572       4.3073      2.00000
    573       4.3099      2.00000
    574       5.1093      2.00000
    575       5.1100      2.00000
    576       5.1108      2.00000
    577       5.7768      0.00000
    578       5.7775      0.00000
    579       5.7783      0.00000
    580       5.8952      0.00000
    581       5.8955      0.00000
    582       5.8955      0.00000
    583       5.8958      0.00000
    584       6.0695      0.00000
    585       6.0695      0.00000
    586       6.0695      0.00000
    587       6.2154      0.00000
    588       6.2160      0.00000
    589       6.2164      0.00000
    590       6.2164      0.00000
    591       6.2168      0.00000
    592       6.2173      0.00000
    593       6.3900      0.00000
    594       6.3907      0.00000
    595       6.3909      0.00000
    596       6.3909      0.00000
    597       6.3910      0.00000
    598       6.3910      0.00000
    599       6.3912      0.00000
    600       6.3918      0.00000
    601       6.4717      0.00000
    602       6.6236      0.00000
    603       6.6248      0.00000
    604       6.6263      0.00000
    605       6.6266      0.00000
    606       6.6266      0.00000
    607       6.6267      0.00000
    608       6.6267      0.00000
    609       6.6268      0.00000
    610       6.6268      0.00000
    611       6.6268      0.00000
    612       6.6269      0.00000
    613       6.6269      0.00000
    614       6.6269      0.00000
    615       6.6269      0.00000
    616       6.6269      0.00000
    617       6.6269      0.00000
    618       6.6269      0.00000
    619       6.6270      0.00000
    620       6.6270      0.00000
    621       6.6271      0.00000
    622       6.6271      0.00000
    623       6.6274      0.00000
    624       6.6289      0.00000
    625       6.6301      0.00000
    626       7.3355      0.00000
    627       7.3360      0.00000
    628       7.3367      0.00000
    629       7.3369      0.00000
    630       7.3369      0.00000
    631       7.3370      0.00000
    632       7.3370      0.00000
    633       7.3370      0.00000
    634       7.3370      0.00000
    635       7.3372      0.00000
    636       7.3380      0.00000
    637       7.3384      0.00000
    638       7.6381      0.00000
    639       7.6386      0.00000
    640       7.6391      0.00000
    641       8.1264      0.00000
    642       8.1266      0.00000
    643       8.1268      0.00000
    644       8.1268      0.00000
    645       8.1271      0.00000
    646       8.1272      0.00000
    647       8.6363      0.00000
    648       8.6371      0.00000
    649       8.6384      0.00000
    650       8.6385      0.00000
    651       8.6386      0.00000
    652       8.6387      0.00000
    653       8.6387      0.00000
    654       8.6387      0.00000
    655       8.6387      0.00000
    656       8.6388      0.00000
    657       8.6388      0.00000
    658       8.6389      0.00000
    659       8.6390      0.00000
    660       8.6391      0.00000
    661       8.6401      0.00000
    662       8.6409      0.00000
    663       8.6547      0.00000
    664       8.6549      0.00000
    665       8.6557      0.00000
    666       8.6557      0.00000
    667       8.6557      0.00000
    668       8.6557      0.00000
    669       8.6567      0.00000
    670       8.6570      0.00000
    671       9.4185      0.00000
    672       9.4194      0.00000
    673       9.4195      0.00000
    674       9.4202      0.00000
    675       9.4206      0.00000
    676       9.4244      0.00000
    677       9.4827      0.00000
    678       9.4829      0.00000
    679       9.4839      0.00000
    680       9.4843      0.00000
    681       9.4844      0.00000
    682       9.4846      0.00000
    683       9.4846      0.00000
    684       9.4846      0.00000
    685       9.4846      0.00000
    686       9.4847      0.00000
    687       9.4847      0.00000
    688       9.4848      0.00000
    689       9.4849      0.00000
    690       9.4850      0.00000
    691       9.4851      0.00000
    692       9.4852      0.00000
    693       9.4855      0.00000
    694       9.4859      0.00000
    695       9.4867      0.00000
    696       9.4870      0.00000
    697       9.4877      0.00000
    698       9.4930      0.00000
    699       9.5023      0.00000
    700       9.5307      0.00000
    701       9.5425      0.00000
    702       9.5433      0.00000
    703       9.5447      0.00000
    704       9.5548      0.00000

 k-point     2 :       0.3333    0.0000    0.0000
  band No.  band energies     occupation 
      1     -19.2237      2.00000
      2     -19.2237      2.00000
      3     -19.2237      2.00000
      4     -19.2222      2.00000
      5     -19.2222      2.00000
      6     -19.2222      2.00000
      7     -19.2217      2.00000
      8     -19.2216      2.00000
      9     -19.2215      2.00000
     10     -19.2212      2.00000
     11     -19.2212      2.00000
     12     -19.2212      2.00000
     13     -19.2204      2.00000
     14     -19.2204      2.00000
     15     -19.2204      2.00000
     16     -19.2201      2.00000
     17     -19.2200      2.00000
     18     -19.2200      2.00000
     19     -19.2200      2.00000
     20     -19.2199      2.00000
     21     -19.2199      2.00000
     22     -19.2196      2.00000
     23     -19.2196      2.00000
     24     -19.2196      2.00000
     25     -19.2195      2.00000
     26     -19.2194      2.00000
     27     -19.2194      2.00000
     28     -19.2194      2.00000
     29     -19.2193      2.00000
     30     -19.2192      2.00000
     31     -19.2192      2.00000
     32     -19.2191      2.00000
     33     -19.2191      2.00000
     34     -19.2190      2.00000
     35     -19.2189      2.00000
     36     -19.2189      2.00000
     37     -19.2187      2.00000
     38     -19.2186      2.00000
     39     -19.2186      2.00000
     40     -19.2185      2.00000
     41     -19.2185      2.00000
     42     -19.2184      2.00000
     43     -19.2184      2.00000
     44     -19.2183      2.00000
     45     -19.2182      2.00000
     46     -19.2182      2.00000
     47     -19.2181      2.00000
     48     -19.2181      2.00000
     49     -19.2181      2.00000
     50     -19.2180      2.00000
     51     -19.2180      2.00000
     52     -19.2180      2.00000
     53     -19.2180      2.00000
     54     -19.2180      2.00000
     55     -19.2179      2.00000
     56     -19.2179      2.00000
     57     -19.2178      2.00000
     58     -19.2178      2.00000
     59     -19.2178      2.00000
     60     -19.2178      2.00000
     61     -19.2177      2.00000
     62     -19.2176      2.00000
     63     -19.2176      2.00000
     64     -19.2175      2.00000
     65     -19.2174      2.00000
     66     -19.2172      2.00000
     67     -19.2166      2.00000
     68     -19.2165      2.00000
     69     -19.2155      2.00000
     70     -19.2154      2.00000
     71     -19.2153      2.00000
     72     -19.2153      2.00000
     73     -19.2151      2.00000
     74     -19.2150      2.00000
     75     -19.2150      2.00000
     76     -19.2149      2.00000
     77     -19.2148      2.00000
     78     -19.2146      2.00000
     79     -19.2145      2.00000
     80     -19.2144      2.00000
     81     -19.2143      2.00000
     82     -19.2143      2.00000
     83     -19.2142      2.00000
     84     -19.2142      2.00000
     85     -19.2141      2.00000
     86     -19.2140      2.00000
     87     -19.2140      2.00000
     88     -19.2139      2.00000
     89     -19.2138      2.00000
     90     -19.2138      2.00000
     91     -19.2137      2.00000
     92     -19.2137      2.00000
     93     -19.2136      2.00000
     94     -19.2136      2.00000
     95     -19.2134      2.00000
     96     -19.2134      2.00000
     97     -19.2134      2.00000
     98     -19.2133      2.00000
     99     -19.2133      2.00000
    100     -19.2133      2.00000
    101     -19.2132      2.00000
    102     -19.2132      2.00000
    103     -19.2132      2.00000
    104     -19.2131      2.00000
    105     -19.2131      2.00000
    106     -19.2129      2.00000
    107     -19.2129      2.00000
    108     -19.2128      2.00000
    109     -19.2128      2.00000
    110     -19.2127      2.00000
    111     -19.2126      2.00000
    112     -19.2126      2.00000
    113     -19.2125      2.00000
    114     -19.2125      2.00000
    115     -19.2124      2.00000
    116     -19.2124      2.00000
    117     -19.2123      2.00000
    118     -19.2123      2.00000
    119     -19.2122      2.00000
    120     -19.2122      2.00000
    121     -19.2122      2.00000
    122     -19.2121      2.00000
    123     -19.2121      2.00000
    124     -19.2121      2.00000
    125     -19.2120      2.00000
    126     -19.2120      2.00000
    127     -19.2119      2.00000
    128     -19.2118      2.00000
    129     -19.2118      2.00000
    130     -19.2117      2.00000
    131     -19.2117      2.00000
    132     -19.2116      2.00000
    133     -19.2116      2.00000
    134     -19.2116      2.00000
    135     -19.2116      2.00000
    136     -19.2115      2.00000
    137     -19.2115      2.00000
    138     -19.2115      2.00000
    139     -19.2114      2.00000
    140     -19.2114      2.00000
    141     -19.2114      2.00000
    142     -19.2113      2.00000
    143     -19.2113      2.00000
    144     -19.2113      2.00000
    145     -19.2112      2.00000
    146     -19.2112      2.00000
    147     -19.2112      2.00000
    148     -19.2111      2.00000
    149     -19.2111      2.00000
    150     -19.2110      2.00000
    151     -19.2110      2.00000
    152     -19.2110      2.00000
    153     -19.2110      2.00000
    154     -19.2108      2.00000
    155     -19.2108      2.00000
    156     -19.2107      2.00000
    157     -19.2106      2.00000
    158     -19.2106      2.00000
    159     -19.2106      2.00000
    160     -19.2105      2.00000
    161     -19.2105      2.00000
    162     -19.2104      2.00000
    163     -19.2103      2.00000
    164     -19.2103      2.00000
    165     -19.2102      2.00000
    166     -19.2101      2.00000
    167     -19.2096      2.00000
    168     -19.2096      2.00000
    169     -19.2092      2.00000
    170     -19.2092      2.00000
    171     -19.2091      2.00000
    172     -19.2089      2.00000
    173     -19.2088      2.00000
    174     -19.2088      2.00000
    175     -19.2087      2.00000
    176     -19.2087      2.00000
    177     -19.2086      2.00000
    178     -19.2086      2.00000
    179     -19.2084      2.00000
    180     -19.2084      2.00000
    181     -19.2079      2.00000
    182     -19.2078      2.00000
    183     -19.2077      2.00000
    184     -19.2077      2.00000
    185     -19.2077      2.00000
    186     -19.2076      2.00000
    187     -19.2076      2.00000
    188     -19.2076      2.00000
    189     -19.2075      2.00000
    190     -19.2072      2.00000
    191     -19.2070      2.00000
    192     -19.2069      2.00000
    193     -19.1966      2.00000
    194     -19.1966      2.00000
    195     -19.1960      2.00000
    196     -19.1957      2.00000
    197     -19.1957      2.00000
    198     -19.1951      2.00000
    199     -19.1950      2.00000
    200     -19.1950      2.00000
    201     -19.1947      2.00000
    202     -19.1947      2.00000
    203     -19.1945      2.00000
    204     -19.1945      2.00000
    205     -19.1944      2.00000
    206     -19.1944      2.00000
    207     -19.1943      2.00000
    208     -19.1943      2.00000
    209     -19.1942      2.00000
    210     -19.1942      2.00000
    211     -19.1942      2.00000
    212     -19.1941      2.00000
    213     -19.1941      2.00000
    214     -19.1940      2.00000
    215     -19.1940      2.00000
    216     -19.1940      2.00000
    217     -19.1939      2.00000
    218     -19.1938      2.00000
    219     -19.1936      2.00000
    220     -19.1935      2.00000
    221     -19.1934      2.00000
    222     -19.1934      2.00000
    223     -19.1934      2.00000
    224     -19.1933      2.00000
    225     -19.1933      2.00000
    226     -19.1932      2.00000
    227     -19.1932      2.00000
    228     -19.1931      2.00000
    229     -19.1930      2.00000
    230     -19.1929      2.00000
    231     -19.1928      2.00000
    232     -19.1928      2.00000
    233     -19.1928      2.00000
    234     -19.1927      2.00000
    235     -19.1927      2.00000
    236     -19.1926      2.00000
    237     -19.1926      2.00000
    238     -19.1926      2.00000
    239     -19.1926      2.00000
    240     -19.1925      2.00000
    241     -19.1925      2.00000
    242     -19.1924      2.00000
    243     -19.1924      2.00000
    244     -19.1924      2.00000
    245     -19.1923      2.00000
    246     -19.1923      2.00000
    247     -19.1923      2.00000
    248     -19.1923      2.00000
    249     -19.1922      2.00000
    250     -19.1922      2.00000
    251     -19.1922      2.00000
    252     -19.1921      2.00000
    253     -19.1920      2.00000
    254     -19.1918      2.00000
    255     -19.1917      2.00000
    256     -19.1916      2.00000
    257     -19.1916      2.00000
    258     -19.1915      2.00000
    259     -19.1915      2.00000
    260     -19.1915      2.00000
    261     -19.1915      2.00000
    262     -19.1914      2.00000
    263     -19.1914      2.00000
    264     -19.1913      2.00000
    265     -19.1913      2.00000
    266     -19.1913      2.00000
    267     -19.1912      2.00000
    268     -19.1912      2.00000
    269     -19.1912      2.00000
    270     -19.1911      2.00000
    271     -19.1911      2.00000
    272     -19.1910      2.00000
    273     -19.1910      2.00000
    274     -19.1910      2.00000
    275     -19.1909      2.00000
    276     -19.1909      2.00000
    277     -19.1909      2.00000
    278     -19.1908      2.00000
    279     -19.1908      2.00000
    280     -19.1908      2.00000
    281     -19.1908      2.00000
    282     -19.1907      2.00000
    283     -19.1906      2.00000
    284     -19.1906      2.00000
    285     -19.1905      2.00000
    286     -19.1905      2.00000
    287     -19.1904      2.00000
    288     -19.1904      2.00000
    289     -19.1903      2.00000
    290     -19.1903      2.00000
    291     -19.1902      2.00000
    292     -19.1902      2.00000
    293     -19.1901      2.00000
    294     -19.1901      2.00000
    295     -19.1901      2.00000
    296     -19.1900      2.00000
    297     -19.1899      2.00000
    298     -19.1899      2.00000
    299     -19.1899      2.00000
    300     -19.1898      2.00000
    301     -19.1898      2.00000
    302     -19.1898      2.00000
    303     -19.1897      2.00000
    304     -19.1897      2.00000
    305     -19.1896      2.00000
    306     -19.1896      2.00000
    307     -19.1895      2.00000
    308     -19.1895      2.00000
    309     -19.1895      2.00000
    310     -19.1894      2.00000
    311     -19.1893      2.00000
    312     -19.1893      2.00000
    313     -19.1889      2.00000
    314     -19.1889      2.00000
    315     -19.1889      2.00000
    316     -19.1884      2.00000
    317     -19.1884      2.00000
    318     -19.1882      2.00000
    319     -19.1874      2.00000
    320     -19.1873      2.00000
    321      -6.9934      2.00000
    322      -6.7411      2.00000
    323      -6.4107      2.00000
    324      -6.4103      2.00000
    325      -6.4100      2.00000
    326      -6.3210      2.00000
    327      -6.3206      2.00000
    328      -6.3203      2.00000
    329      -6.0951      2.00000
    330      -6.0947      2.00000
    331      -6.0944      2.00000
    332      -5.8048      2.00000
    333      -5.7046      2.00000
    334      -5.7043      2.00000
    335      -5.7040      2.00000
    336      -5.6624      2.00000
    337      -5.6622      2.00000
    338      -5.6618      2.00000
    339      -5.2544      2.00000
    340      -5.1364      2.00000
    341      -5.1361      2.00000
    342      -5.1358      2.00000
    343      -5.1224      2.00000
    344      -5.1215      2.00000
    345      -5.1214      2.00000
    346      -5.1214      2.00000
    347      -5.1212      2.00000
    348      -5.1206      2.00000
    349      -4.9356      2.00000
    350      -4.9349      2.00000
    351      -4.9345      2.00000
    352      -4.9159      2.00000
    353      -4.9149      2.00000
    354      -4.9149      2.00000
    355      -4.9148      2.00000
    356      -4.9147      2.00000
    357      -4.9140      2.00000
    358      -4.8104      2.00000
    359      -4.8098      2.00000
    360      -4.8094      2.00000
    361      -4.6413      2.00000
    362      -4.6412      2.00000
    363      -4.6407      2.00000
    364      -4.3247      2.00000
    365      -4.3247      2.00000
    366      -4.3240      2.00000
    367      -4.2603      2.00000
    368      -4.2597      2.00000
    369      -4.2593      2.00000
    370      -4.1699      2.00000
    371      -4.1689      2.00000
    372      -4.1689      2.00000
    373      -4.1689      2.00000
    374      -4.1687      2.00000
    375      -4.1680      2.00000
    376      -3.8503      2.00000
    377      -3.8498      2.00000
    378      -3.8493      2.00000
    379      -3.7276      2.00000
    380      -3.7266      2.00000
    381      -3.7265      2.00000
    382      -3.7265      2.00000
    383      -3.7264      2.00000
    384      -3.7255      2.00000
    385      -2.3907      2.00000
    386      -2.3905      2.00000
    387      -2.3902      2.00000
    388      -2.3656      2.00000
    389      -2.3654      2.00000
    390      -2.3652      2.00000
    391      -2.3652      2.00000
    392      -2.3650      2.00000
    393      -2.3645      2.00000
    394      -1.9957      2.00000
    395      -1.9954      2.00000
    396      -1.9952      2.00000
    397      -1.9951      2.00000
    398      -1.9950      2.00000
    399      -1.9943      2.00000
    400      -1.9786      2.00000
    401      -1.9769      2.00000
    402      -1.9768      2.00000
    403      -1.9102      2.00000
    404      -1.9100      2.00000
    405      -1.9093      2.00000
    406      -1.8789      2.00000
    407      -1.8787      2.00000
    408      -1.8782      2.00000
    409      -1.7280      2.00000
    410      -1.7279      2.00000
    411      -1.7271      2.00000
    412      -1.5529      2.00000
    413      -1.5514      2.00000
    414      -1.5512      2.00000
    415      -1.5387      2.00000
    416      -1.2745      2.00000
    417      -1.2745      2.00000
    418      -1.2743      2.00000
    419      -1.2742      2.00000
    420      -1.2742      2.00000
    421      -1.2731      2.00000
    422      -0.9484      2.00000
    423      -0.9483      2.00000
    424      -0.9482      2.00000
    425      -0.9481      2.00000
    426      -0.9481      2.00000
    427      -0.9469      2.00000
    428      -0.8029      2.00000
    429      -0.8016      2.00000
    430      -0.8014      2.00000
    431      -0.4817      2.00000
    432      -0.1330      2.00000
    433      -0.1325      2.00000
    434      -0.1321      2.00000
    435       0.1549      2.00000
    436       0.1558      2.00000
    437       0.1561      2.00000
    438       0.3875      2.00000
    439       0.3878      2.00000
    440       0.3881      2.00000
    441       1.1235      2.00000
    442       1.1237      2.00000
    443       1.1239      2.00000
    444       1.1240      2.00000
    445       1.1242      2.00000
    446       1.1244      2.00000
    447       1.1410      2.00000
    448       1.1413      2.00000
    449       1.1416      2.00000
    450       1.2223      2.00000
    451       1.2224      2.00000
    452       1.2226      2.00000
    453       1.2227      2.00000
    454       1.2231      2.00000
    455       1.2233      2.00000
    456       1.2321      2.00000
    457       1.2324      2.00000
    458       1.2328      2.00000
    459       1.3288      2.00000
    460       1.3289      2.00000
    461       1.3293      2.00000
    462       1.4968      2.00000
    463       1.4968      2.00000
    464       1.4973      2.00000
    465       1.5355      2.00000
    466       1.5359      2.00000
    467       1.5360      2.00000
    468       1.6064      2.00000
    469       1.6067      2.00000
    470       1.6068      2.00000
    471       1.6069      2.00000
    472       1.6076      2.00000
    473       1.6076      2.00000
    474       1.8448      2.00000
    475       1.8450      2.00000
    476       1.8451      2.00000
    477       1.8452      2.00000
    478       1.8460      2.00000
    479       1.8460      2.00000
    480       1.8639      2.00000
    481       1.8640      2.00000
    482       1.8644      2.00000
    483       1.8645      2.00000
    484       1.8647      2.00000
    485       1.8648      2.00000
    486       1.9429      2.00000
    487       1.9432      2.00000
    488       1.9434      2.00000
    489       2.1116      2.00000
    490       2.1119      2.00000
    491       2.1123      2.00000
    492       2.1886      2.00000
    493       2.1889      2.00000
    494       2.1891      2.00000
    495       2.2263      2.00000
    496       2.2270      2.00000
    497       2.2272      2.00000
    498       2.2969      2.00000
    499       2.2970      2.00000
    500       2.2972      2.00000
    501       2.4084      2.00000
    502       2.4850      2.00000
    503       2.4854      2.00000
    504       2.4857      2.00000
    505       2.4858      2.00000
    506       2.4859      2.00000
    507       2.4861      2.00000
    508       2.5185      2.00000
    509       2.5186      2.00000
    510       2.5189      2.00000
    511       2.7330      2.00000
    512       2.7330      2.00000
    513       2.7334      2.00000
    514       2.8322      2.00000
    515       2.8324      2.00000
    516       2.8326      2.00000
    517       2.9468      2.00000
    518       2.9470      2.00000
    519       2.9473      2.00000
    520       2.9610      2.00000
    521       2.9622      2.00000
    522       2.9625      2.00000
    523       2.9625      2.00000
    524       2.9627      2.00000
    525       2.9628      2.00000
    526       3.0378      2.00000
    527       3.0380      2.00000
    528       3.0383      2.00000
    529       3.1920      2.00000
    530       3.1928      2.00000
    531       3.1931      2.00000
    532       3.2823      2.00000
    533       3.2823      2.00000
    534       3.2827      2.00000
    535       3.3376      2.00000
    536       3.3378      2.00000
    537       3.3382      2.00000
    538       3.3441      2.00000
    539       3.3448      2.00000
    540       3.3450      2.00000
    541       3.4105      2.00000
    542       3.4117      2.00000
    543       3.4121      2.00000
    544       3.4122      2.00000
    545       3.4122      2.00000
    546       3.4123      2.00000
    547       3.5021      2.00000
    548       3.5032      2.00000
    549       3.5033      2.00000
    550       3.5633      2.00000
    551       3.5634      2.00000
    552       3.5638      2.00000
    553       3.6652      2.00000
    554       3.6653      2.00000
    555       3.6657      2.00000
    556       3.8857      2.00000
    557       3.8863      2.00000
    558       3.9764      2.00000
    559       3.9766      2.00000
    560       3.9770      2.00000
    561       4.0020      2.00000
    562       4.0474      2.00000
    563       4.0479      2.00000
    564       4.0666      2.00000
    565       4.0679      2.00000
    566       4.0680      2.00000
    567       4.1198      2.00000
    568       4.1199      2.00000
    569       4.1205      2.00000
    570       4.3681      2.00000
    571       4.3682      2.00000
    572       4.3688      2.00000
    573       4.6358      2.00000
    574       4.6364      2.00000
    575       4.9591      2.00000
    576       4.9597      2.00000
    577       5.9335      0.00000
    578       5.9342      0.00000
    579       5.9345      0.00000
    580       5.9535      0.00000
    581       6.1233      0.00000
    582       6.2205      0.00000
    583       6.2211      0.00000
    584       6.2212      0.00000
    585       6.3083      0.00000
    586       6.3090      0.00000
    587       6.3090      0.00000
    588       6.5317      0.00000
    589       6.5319      0.00000
    590       6.5321      0.00000
    591       6.5427      0.00000
    592       6.5433      0.00000
    593       6.5435      0.00000
    594       6.5599      0.00000
    595       6.5601      0.00000
    596       6.5605      0.00000
    597       6.7113      0.00000
    598       6.7700      0.00000
    599       6.7706      0.00000
    600       6.7707      0.00000
    601       6.7855      0.00000
    602       6.7859      0.00000
    603       6.7864      0.00000
    604       6.8718      0.00000
    605       6.8719      0.00000
    606       6.8721      0.00000
    607       6.8978      0.00000
    608       6.9735      0.00000
    609       6.9738      0.00000
    610       6.9741      0.00000
    611       6.9822      0.00000
    612       6.9824      0.00000
    613       6.9833      0.00000
    614       6.9833      0.00000
    615       6.9834      0.00000
    616       6.9839      0.00000
    617       7.0276      0.00000
    618       7.0281      0.00000
    619       7.0282      0.00000
    620       7.1160      0.00000
    621       7.1163      0.00000
    622       7.1166      0.00000
    623       7.2776      0.00000
    624       7.2777      0.00000
    625       7.2786      0.00000
    626       7.2787      0.00000
    627       7.2787      0.00000
    628       7.2796      0.00000
    629       7.4297      0.00000
    630       7.4301      0.00000
    631       7.4303      0.00000
    632       7.7996      0.00000
    633       7.7997      0.00000
    634       7.8004      0.00000
    635       7.8005      0.00000
    636       7.8005      0.00000
    637       7.8013      0.00000
    638       7.8482      0.00000
    639       7.8486      0.00000
    640       7.8505      0.00000
    641       7.8507      0.00000
    642       7.8512      0.00000
    643       7.8677      0.00000
    644       7.8677      0.00000
    645       7.8681      0.00000
    646       8.0460      0.00000
    647       8.0460      0.00000
    648       8.0471      0.00000
    649       8.1001      0.00000
    650       8.1004      0.00000
    651       8.1012      0.00000
    652       8.1012      0.00000
    653       8.1013      0.00000
    654       8.1017      0.00000
    655       8.1578      0.00000
    656       8.2901      0.00000
    657       8.2906      0.00000
    658       8.3255      0.00000
    659       8.3255      0.00000
    660       8.3261      0.00000
    661       8.4402      0.00000
    662       8.4403      0.00000
    663       8.4404      0.00000
    664       8.5278      0.00000
    665       8.5279      0.00000
    666       8.5288      0.00000
    667       8.6018      0.00000
    668       8.6020      0.00000
    669       8.6027      0.00000
    670       8.6879      0.00000
    671       8.6886      0.00000
    672       8.7034      0.00000
    673       8.7038      0.00000
    674       8.7046      0.00000
    675       8.7047      0.00000
    676       8.7048      0.00000
    677       8.7051      0.00000
    678       8.7332      0.00000
    679       8.7338      0.00000
    680       8.8938      0.00000
    681       8.8938      0.00000
    682       8.8944      0.00000
    683       8.9652      0.00000
    684       8.9653      0.00000
    685       8.9662      0.00000
    686       8.9878      0.00000
    687       8.9878      0.00000
    688       8.9886      0.00000
    689       9.0854      0.00000
    690       9.0858      0.00000
    691       9.0863      0.00000
    692       9.1001      0.00000
    693       9.1005      0.00000
    694       9.1010      0.00000
    695       9.1012      0.00000
    696       9.1013      0.00000
    697       9.1015      0.00000
    698       9.1707      0.00000
    699       9.1710      0.00000
    700       9.1714      0.00000
    701       9.2189      0.00000
    702       9.2197      0.00000
    703       9.2304      0.00000
    704       9.4067      0.00000

 k-point     3 :       0.0000    0.3333    0.0000
  band No.  band energies     occupation 
      1     -19.2237      2.00000
      2     -19.2237      2.00000
      3     -19.2237      2.00000
      4     -19.2223      2.00000
      5     -19.2222      2.00000
      6     -19.2222      2.00000
      7     -19.2216      2.00000
      8     -19.2216      2.00000
      9     -19.2215      2.00000
     10     -19.2212      2.00000
     11     -19.2211      2.00000
     12     -19.2211      2.00000
     13     -19.2205      2.00000
     14     -19.2204      2.00000
     15     -19.2204      2.00000
     16     -19.2201      2.00000
     17     -19.2200      2.00000
     18     -19.2200      2.00000
     19     -19.2200      2.00000
     20     -19.2200      2.00000
     21     -19.2199      2.00000
     22     -19.2196      2.00000
     23     -19.2196      2.00000
     24     -19.2195      2.00000
     25     -19.2194      2.00000
     26     -19.2194      2.00000
     27     -19.2193      2.00000
     28     -19.2193      2.00000
     29     -19.2193      2.00000
     30     -19.2193      2.00000
     31     -19.2192      2.00000
     32     -19.2192      2.00000
     33     -19.2191      2.00000
     34     -19.2189      2.00000
     35     -19.2189      2.00000
     36     -19.2188      2.00000
     37     -19.2188      2.00000
     38     -19.2187      2.00000
     39     -19.2186      2.00000
     40     -19.2186      2.00000
     41     -19.2185      2.00000
     42     -19.2185      2.00000
     43     -19.2183      2.00000
     44     -19.2183      2.00000
     45     -19.2182      2.00000
     46     -19.2182      2.00000
     47     -19.2181      2.00000
     48     -19.2181      2.00000
     49     -19.2181      2.00000
     50     -19.2180      2.00000
     51     -19.2180      2.00000
     52     -19.2180      2.00000
     53     -19.2179      2.00000
     54     -19.2179      2.00000
     55     -19.2179      2.00000
     56     -19.2179      2.00000
     57     -19.2178      2.00000
     58     -19.2178      2.00000
     59     -19.2178      2.00000
     60     -19.2178      2.00000
     61     -19.2177      2.00000
     62     -19.2177      2.00000
     63     -19.2176      2.00000
     64     -19.2174      2.00000
     65     -19.2174      2.00000
     66     -19.2172      2.00000
     67     -19.2166      2.00000
     68     -19.2165      2.00000
     69     -19.2156      2.00000
     70     -19.2154      2.00000
     71     -19.2153      2.00000
     72     -19.2153      2.00000
     73     -19.2152      2.00000
     74     -19.2150      2.00000
     75     -19.2149      2.00000
     76     -19.2148      2.00000
     77     -19.2147      2.00000
     78     -19.2146      2.00000
     79     -19.2145      2.00000
     80     -19.2144      2.00000
     81     -19.2143      2.00000
     82     -19.2143      2.00000
     83     -19.2142      2.00000
     84     -19.2142      2.00000
     85     -19.2141      2.00000
     86     -19.2141      2.00000
     87     -19.2140      2.00000
     88     -19.2140      2.00000
     89     -19.2139      2.00000
     90     -19.2138      2.00000
     91     -19.2137      2.00000
     92     -19.2137      2.00000
     93     -19.2137      2.00000
     94     -19.2136      2.00000
     95     -19.2135      2.00000
     96     -19.2135      2.00000
     97     -19.2134      2.00000
     98     -19.2133      2.00000
     99     -19.2132      2.00000
    100     -19.2132      2.00000
    101     -19.2132      2.00000
    102     -19.2132      2.00000
    103     -19.2131      2.00000
    104     -19.2131      2.00000
    105     -19.2130      2.00000
    106     -19.2129      2.00000
    107     -19.2128      2.00000
    108     -19.2128      2.00000
    109     -19.2127      2.00000
    110     -19.2127      2.00000
    111     -19.2127      2.00000
    112     -19.2126      2.00000
    113     -19.2126      2.00000
    114     -19.2125      2.00000
    115     -19.2124      2.00000
    116     -19.2123      2.00000
    117     -19.2123      2.00000
    118     -19.2123      2.00000
    119     -19.2122      2.00000
    120     -19.2122      2.00000
    121     -19.2122      2.00000
    122     -19.2121      2.00000
    123     -19.2121      2.00000
    124     -19.2121      2.00000
    125     -19.2120      2.00000
    126     -19.2120      2.00000
    127     -19.2118      2.00000
    128     -19.2118      2.00000
    129     -19.2118      2.00000
    130     -19.2117      2.00000
    131     -19.2117      2.00000
    132     -19.2116      2.00000
    133     -19.2116      2.00000
    134     -19.2116      2.00000
    135     -19.2116      2.00000
    136     -19.2115      2.00000
    137     -19.2115      2.00000
    138     -19.2115      2.00000
    139     -19.2115      2.00000
    140     -19.2114      2.00000
    141     -19.2114      2.00000
    142     -19.2113      2.00000
    143     -19.2113      2.00000
    144     -19.2112      2.00000
    145     -19.2112      2.00000
    146     -19.2112      2.00000
    147     -19.2112      2.00000
    148     -19.2111      2.00000
    149     -19.2111      2.00000
    150     -19.2110      2.00000
    151     -19.2110      2.00000
    152     -19.2110      2.00000
    153     -19.2109      2.00000
    154     -19.2109      2.00000
    155     -19.2108      2.00000
    156     -19.2107      2.00000
    157     -19.2107      2.00000
    158     -19.2106      2.00000
    159     -19.2106      2.00000
    160     -19.2105      2.00000
    161     -19.2105      2.00000
    162     -19.2104      2.00000
    163     -19.2104      2.00000
    164     -19.2103      2.00000
    165     -19.2102      2.00000
    166     -19.2101      2.00000
    167     -19.2098      2.00000
    168     -19.2097      2.00000
    169     -19.2092      2.00000
    170     -19.2092      2.00000
    171     -19.2090      2.00000
    172     -19.2089      2.00000
    173     -19.2088      2.00000
    174     -19.2088      2.00000
    175     -19.2087      2.00000
    176     -19.2087      2.00000
    177     -19.2086      2.00000
    178     -19.2085      2.00000
    179     -19.2084      2.00000
    180     -19.2083      2.00000
    181     -19.2078      2.00000
    182     -19.2078      2.00000
    183     -19.2077      2.00000
    184     -19.2077      2.00000
    185     -19.2077      2.00000
    186     -19.2077      2.00000
    187     -19.2076      2.00000
    188     -19.2076      2.00000
    189     -19.2076      2.00000
    190     -19.2072      2.00000
    191     -19.2071      2.00000
    192     -19.2069      2.00000
    193     -19.1966      2.00000
    194     -19.1966      2.00000
    195     -19.1960      2.00000
    196     -19.1957      2.00000
    197     -19.1957      2.00000
    198     -19.1952      2.00000
    199     -19.1951      2.00000
    200     -19.1950      2.00000
    201     -19.1947      2.00000
    202     -19.1946      2.00000
    203     -19.1945      2.00000
    204     -19.1945      2.00000
    205     -19.1944      2.00000
    206     -19.1944      2.00000
    207     -19.1943      2.00000
    208     -19.1943      2.00000
    209     -19.1942      2.00000
    210     -19.1942      2.00000
    211     -19.1941      2.00000
    212     -19.1941      2.00000
    213     -19.1940      2.00000
    214     -19.1940      2.00000
    215     -19.1939      2.00000
    216     -19.1939      2.00000
    217     -19.1939      2.00000
    218     -19.1938      2.00000
    219     -19.1937      2.00000
    220     -19.1935      2.00000
    221     -19.1935      2.00000
    222     -19.1934      2.00000
    223     -19.1934      2.00000
    224     -19.1933      2.00000
    225     -19.1933      2.00000
    226     -19.1932      2.00000
    227     -19.1931      2.00000
    228     -19.1931      2.00000
    229     -19.1930      2.00000
    230     -19.1930      2.00000
    231     -19.1929      2.00000
    232     -19.1928      2.00000
    233     -19.1928      2.00000
    234     -19.1927      2.00000
    235     -19.1927      2.00000
    236     -19.1927      2.00000
    237     -19.1926      2.00000
    238     -19.1926      2.00000
    239     -19.1925      2.00000
    240     -19.1925      2.00000
    241     -19.1925      2.00000
    242     -19.1924      2.00000
    243     -19.1924      2.00000
    244     -19.1924      2.00000
    245     -19.1923      2.00000
    246     -19.1923      2.00000
    247     -19.1922      2.00000
    248     -19.1922      2.00000
    249     -19.1922      2.00000
    250     -19.1921      2.00000
    251     -19.1920      2.00000
    252     -19.1920      2.00000
    253     -19.1920      2.00000
    254     -19.1918      2.00000
    255     -19.1917      2.00000
    256     -19.1917      2.00000
    257     -19.1916      2.00000
    258     -19.1915      2.00000
    259     -19.1915      2.00000
    260     -19.1915      2.00000
    261     -19.1914      2.00000
    262     -19.1914      2.00000
    263     -19.1914      2.00000
    264     -19.1913      2.00000
    265     -19.1913      2.00000
    266     -19.1913      2.00000
    267     -19.1913      2.00000
    268     -19.1912      2.00000
    269     -19.1912      2.00000
    270     -19.1912      2.00000
    271     -19.1911      2.00000
    272     -19.1911      2.00000
    273     -19.1910      2.00000
    274     -19.1909      2.00000
    275     -19.1909      2.00000
    276     -19.1909      2.00000
    277     -19.1908      2.00000
    278     -19.1908      2.00000
    279     -19.1908      2.00000
    280     -19.1907      2.00000
    281     -19.1907      2.00000
    282     -19.1907      2.00000
    283     -19.1906      2.00000
    284     -19.1906      2.00000
    285     -19.1905      2.00000
    286     -19.1905      2.00000
    287     -19.1904      2.00000
    288     -19.1904      2.00000
    289     -19.1903      2.00000
    290     -19.1902      2.00000
    291     -19.1902      2.00000
    292     -19.1902      2.00000
    293     -19.1901      2.00000
    294     -19.1901      2.00000
    295     -19.1900      2.00000
    296     -19.1900      2.00000
    297     -19.1899      2.00000
    298     -19.1899      2.00000
    299     -19.1899      2.00000
    300     -19.1899      2.00000
    301     -19.1898      2.00000
    302     -19.1898      2.00000
    303     -19.1898      2.00000
    304     -19.1897      2.00000
    305     -19.1897      2.00000
    306     -19.1896      2.00000
    307     -19.1896      2.00000
    308     -19.1895      2.00000
    309     -19.1895      2.00000
    310     -19.1894      2.00000
    311     -19.1893      2.00000
    312     -19.1893      2.00000
    313     -19.1889      2.00000
    314     -19.1889      2.00000
    315     -19.1888      2.00000
    316     -19.1884      2.00000
    317     -19.1884      2.00000
    318     -19.1882      2.00000
    319     -19.1875      2.00000
    320     -19.1874      2.00000
    321      -6.9934      2.00000
    322      -6.7411      2.00000
    323      -6.4108      2.00000
    324      -6.4103      2.00000
    325      -6.4098      2.00000
    326      -6.3211      2.00000
    327      -6.3206      2.00000
    328      -6.3201      2.00000
    329      -6.0952      2.00000
    330      -6.0947      2.00000
    331      -6.0942      2.00000
    332      -5.8049      2.00000
    333      -5.7048      2.00000
    334      -5.7043      2.00000
    335      -5.7038      2.00000
    336      -5.6627      2.00000
    337      -5.6622      2.00000
    338      -5.6617      2.00000
    339      -5.2545      2.00000
    340      -5.1367      2.00000
    341      -5.1361      2.00000
    342      -5.1357      2.00000
    343      -5.1225      2.00000
    344      -5.1214      2.00000
    345      -5.1214      2.00000
    346      -5.1214      2.00000
    347      -5.1213      2.00000
    348      -5.1201      2.00000
    349      -4.9355      2.00000
    350      -4.9349      2.00000
    351      -4.9343      2.00000
    352      -4.9160      2.00000
    353      -4.9149      2.00000
    354      -4.9148      2.00000
    355      -4.9148      2.00000
    356      -4.9148      2.00000
    357      -4.9136      2.00000
    358      -4.8104      2.00000
    359      -4.8098      2.00000
    360      -4.8092      2.00000
    361      -4.6418      2.00000
    362      -4.6412      2.00000
    363      -4.6407      2.00000
    364      -4.3253      2.00000
    365      -4.3247      2.00000
    366      -4.3241      2.00000
    367      -4.2603      2.00000
    368      -4.2597      2.00000
    369      -4.2591      2.00000
    370      -4.1700      2.00000
    371      -4.1689      2.00000
    372      -4.1689      2.00000
    373      -4.1688      2.00000
    374      -4.1688      2.00000
    375      -4.1676      2.00000
    376      -3.8504      2.00000
    377      -3.8498      2.00000
    378      -3.8492      2.00000
    379      -3.7277      2.00000
    380      -3.7265      2.00000
    381      -3.7265      2.00000
    382      -3.7264      2.00000
    383      -3.7264      2.00000
    384      -3.7253      2.00000
    385      -2.3910      2.00000
    386      -2.3905      2.00000
    387      -2.3901      2.00000
    388      -2.3661      2.00000
    389      -2.3653      2.00000
    390      -2.3652      2.00000
    391      -2.3652      2.00000
    392      -2.3651      2.00000
    393      -2.3642      2.00000
    394      -1.9964      2.00000
    395      -1.9953      2.00000
    396      -1.9952      2.00000
    397      -1.9951      2.00000
    398      -1.9951      2.00000
    399      -1.9940      2.00000
    400      -1.9770      2.00000
    401      -1.9769      2.00000
    402      -1.9768      2.00000
    403      -1.9107      2.00000
    404      -1.9100      2.00000
    405      -1.9094      2.00000
    406      -1.8793      2.00000
    407      -1.8787      2.00000
    408      -1.8782      2.00000
    409      -1.7286      2.00000
    410      -1.7279      2.00000
    411      -1.7272      2.00000
    412      -1.5516      2.00000
    413      -1.5514      2.00000
    414      -1.5512      2.00000
    415      -1.5382      2.00000
    416      -1.2756      2.00000
    417      -1.2745      2.00000
    418      -1.2744      2.00000
    419      -1.2743      2.00000
    420      -1.2741      2.00000
    421      -1.2730      2.00000
    422      -0.9495      2.00000
    423      -0.9484      2.00000
    424      -0.9483      2.00000
    425      -0.9482      2.00000
    426      -0.9480      2.00000
    427      -0.9469      2.00000
    428      -0.8020      2.00000
    429      -0.8016      2.00000
    430      -0.8013      2.00000
    431      -0.4812      2.00000
    432      -0.1329      2.00000
    433      -0.1325      2.00000
    434      -0.1320      2.00000
    435       0.1553      2.00000
    436       0.1558      2.00000
    437       0.1562      2.00000
    438       0.3873      2.00000
    439       0.3878      2.00000
    440       0.3882      2.00000
    441       1.1235      2.00000
    442       1.1236      2.00000
    443       1.1239      2.00000
    444       1.1240      2.00000
    445       1.1243      2.00000
    446       1.1244      2.00000
    447       1.1410      2.00000
    448       1.1412      2.00000
    449       1.1415      2.00000
    450       1.2221      2.00000
    451       1.2223      2.00000
    452       1.2227      2.00000
    453       1.2228      2.00000
    454       1.2231      2.00000
    455       1.2232      2.00000
    456       1.2320      2.00000
    457       1.2323      2.00000
    458       1.2327      2.00000
    459       1.3283      2.00000
    460       1.3288      2.00000
    461       1.3293      2.00000
    462       1.4962      2.00000
    463       1.4967      2.00000
    464       1.4973      2.00000
    465       1.5358      2.00000
    466       1.5361      2.00000
    467       1.5363      2.00000
    468       1.6064      2.00000
    469       1.6066      2.00000
    470       1.6069      2.00000
    471       1.6070      2.00000
    472       1.6073      2.00000
    473       1.6075      2.00000
    474       1.8445      2.00000
    475       1.8447      2.00000
    476       1.8451      2.00000
    477       1.8452      2.00000
    478       1.8455      2.00000
    479       1.8458      2.00000
    480       1.8637      2.00000
    481       1.8641      2.00000
    482       1.8643      2.00000
    483       1.8644      2.00000
    484       1.8646      2.00000
    485       1.8651      2.00000
    486       1.9431      2.00000
    487       1.9433      2.00000
    488       1.9435      2.00000
    489       2.1113      2.00000
    490       2.1118      2.00000
    491       2.1122      2.00000
    492       2.1886      2.00000
    493       2.1890      2.00000
    494       2.1894      2.00000
    495       2.2268      2.00000
    496       2.2272      2.00000
    497       2.2275      2.00000
    498       2.2967      2.00000
    499       2.2969      2.00000
    500       2.2972      2.00000
    501       2.4089      2.00000
    502       2.4849      2.00000
    503       2.4854      2.00000
    504       2.4856      2.00000
    505       2.4857      2.00000
    506       2.4859      2.00000
    507       2.4864      2.00000
    508       2.5182      2.00000
    509       2.5185      2.00000
    510       2.5188      2.00000
    511       2.7326      2.00000
    512       2.7330      2.00000
    513       2.7335      2.00000
    514       2.8319      2.00000
    515       2.8323      2.00000
    516       2.8327      2.00000
    517       2.9465      2.00000
    518       2.9469      2.00000
    519       2.9473      2.00000
    520       2.9621      2.00000
    521       2.9623      2.00000
    522       2.9626      2.00000
    523       2.9626      2.00000
    524       2.9629      2.00000
    525       2.9631      2.00000
    526       3.0375      2.00000
    527       3.0379      2.00000
    528       3.0384      2.00000
    529       3.1926      2.00000
    530       3.1930      2.00000
    531       3.1933      2.00000
    532       3.2819      2.00000
    533       3.2822      2.00000
    534       3.2825      2.00000
    535       3.3372      2.00000
    536       3.3377      2.00000
    537       3.3382      2.00000
    538       3.3445      2.00000
    539       3.3449      2.00000
    540       3.3453      2.00000
    541       3.4114      2.00000
    542       3.4117      2.00000
    543       3.4121      2.00000
    544       3.4121      2.00000
    545       3.4124      2.00000
    546       3.4128      2.00000
    547       3.5033      2.00000
    548       3.5033      2.00000
    549       3.5034      2.00000
    550       3.5629      2.00000
    551       3.5633      2.00000
    552       3.5638      2.00000
    553       3.6648      2.00000
    554       3.6651      2.00000
    555       3.6655      2.00000
    556       3.8854      2.00000
    557       3.8864      2.00000
    558       3.9760      2.00000
    559       3.9764      2.00000
    560       3.9769      2.00000
    561       4.0025      2.00000
    562       4.0471      2.00000
    563       4.0480      2.00000
    564       4.0678      2.00000
    565       4.0680      2.00000
    566       4.0682      2.00000
    567       4.1192      2.00000
    568       4.1198      2.00000
    569       4.1203      2.00000
    570       4.3675      2.00000
    571       4.3680      2.00000
    572       4.3686      2.00000
    573       4.6354      2.00000
    574       4.6364      2.00000
    575       4.9585      2.00000
    576       4.9597      2.00000
    577       5.9333      0.00000
    578       5.9339      0.00000
    579       5.9345      0.00000
    580       5.9532      0.00000
    581       6.1230      0.00000
    582       6.2202      0.00000
    583       6.2207      0.00000
    584       6.2212      0.00000
    585       6.3081      0.00000
    586       6.3087      0.00000
    587       6.3094      0.00000
    588       6.5317      0.00000
    589       6.5320      0.00000
    590       6.5323      0.00000
    591       6.5423      0.00000
    592       6.5430      0.00000
    593       6.5437      0.00000
    594       6.5600      0.00000
    595       6.5603      0.00000
    596       6.5606      0.00000
    597       6.7110      0.00000
    598       6.7696      0.00000
    599       6.7702      0.00000
    600       6.7708      0.00000
    601       6.7854      0.00000
    602       6.7859      0.00000
    603       6.7863      0.00000
    604       6.8717      0.00000
    605       6.8720      0.00000
    606       6.8723      0.00000
    607       6.8976      0.00000
    608       6.9731      0.00000
    609       6.9736      0.00000
    610       6.9742      0.00000
    611       6.9825      0.00000
    612       6.9831      0.00000
    613       6.9832      0.00000
    614       6.9833      0.00000
    615       6.9835      0.00000
    616       6.9841      0.00000
    617       7.0272      0.00000
    618       7.0278      0.00000
    619       7.0283      0.00000
    620       7.1160      0.00000
    621       7.1164      0.00000
    622       7.1168      0.00000
    623       7.2775      0.00000
    624       7.2784      0.00000
    625       7.2785      0.00000
    626       7.2786      0.00000
    627       7.2787      0.00000
    628       7.2796      0.00000
    629       7.4295      0.00000
    630       7.4300      0.00000
    631       7.4305      0.00000
    632       7.7996      0.00000
    633       7.8003      0.00000
    634       7.8004      0.00000
    635       7.8004      0.00000
    636       7.8006      0.00000
    637       7.8012      0.00000
    638       7.8482      0.00000
    639       7.8490      0.00000
    640       7.8504      0.00000
    641       7.8509      0.00000
    642       7.8514      0.00000
    643       7.8678      0.00000
    644       7.8679      0.00000
    645       7.8681      0.00000
    646       8.0456      0.00000
    647       8.0460      0.00000
    648       8.0464      0.00000
    649       8.1002      0.00000
    650       8.1009      0.00000
    651       8.1011      0.00000
    652       8.1012      0.00000
    653       8.1014      0.00000
    654       8.1021      0.00000
    655       8.1577      0.00000
    656       8.2900      0.00000
    657       8.2908      0.00000
    658       8.3256      0.00000
    659       8.3259      0.00000
    660       8.3262      0.00000
    661       8.4400      0.00000
    662       8.4402      0.00000
    663       8.4404      0.00000
    664       8.5274      0.00000
    665       8.5278      0.00000
    666       8.5281      0.00000
    667       8.6024      0.00000
    668       8.6026      0.00000
    669       8.6028      0.00000
    670       8.6875      0.00000
    671       8.6887      0.00000
    672       8.7036      0.00000
    673       8.7045      0.00000
    674       8.7046      0.00000
    675       8.7046      0.00000
    676       8.7047      0.00000
    677       8.7057      0.00000
    678       8.7327      0.00000
    679       8.7339      0.00000
    680       8.8933      0.00000
    681       8.8937      0.00000
    682       8.8940      0.00000
    683       8.9650      0.00000
    684       8.9654      0.00000
    685       8.9659      0.00000
    686       8.9886      0.00000
    687       8.9886      0.00000
    688       8.9886      0.00000
    689       9.0858      0.00000
    690       9.0862      0.00000
    691       9.0866      0.00000
    692       9.1006      0.00000
    693       9.1010      0.00000
    694       9.1011      0.00000
    695       9.1013      0.00000
    696       9.1013      0.00000
    697       9.1018      0.00000
    698       9.1712      0.00000
    699       9.1714      0.00000
    700       9.1717      0.00000
    701       9.2191      0.00000
    702       9.2196      0.00000
    703       9.2208      0.00000
    704       9.4046      0.00000

 k-point     4 :       0.3333    0.3333    0.3333
  band No.  band energies     occupation 
      1     -19.2237      2.00000
      2     -19.2237      2.00000
      3     -19.2237      2.00000
      4     -19.2222      2.00000
      5     -19.2221      2.00000
      6     -19.2221      2.00000
      7     -19.2217      2.00000
      8     -19.2216      2.00000
      9     -19.2216      2.00000
     10     -19.2212      2.00000
     11     -19.2212      2.00000
     12     -19.2212      2.00000
     13     -19.2205      2.00000
     14     -19.2205      2.00000
     15     -19.2203      2.00000
     16     -19.2201      2.00000
     17     -19.2201      2.00000
     18     -19.2200      2.00000
     19     -19.2200      2.00000
     20     -19.2199      2.00000
     21     -19.2199      2.00000
     22     -19.2196      2.00000
     23     -19.2196      2.00000
     24     -19.2196      2.00000
     25     -19.2195      2.00000
     26     -19.2195      2.00000
     27     -19.2194      2.00000
     28     -19.2192      2.00000
     29     -19.2192      2.00000
     30     -19.2192      2.00000
     31     -19.2191      2.00000
     32     -19.2191      2.00000
     33     -19.2191      2.00000
     34     -19.2190      2.00000
     35     -19.2189      2.00000
     36     -19.2189      2.00000
     37     -19.2186      2.00000
     38     -19.2186      2.00000
     39     -19.2186      2.00000
     40     -19.2185      2.00000
     41     -19.2185      2.00000
     42     -19.2185      2.00000
     43     -19.2184      2.00000
     44     -19.2183      2.00000
     45     -19.2182      2.00000
     46     -19.2182      2.00000
     47     -19.2181      2.00000
     48     -19.2181      2.00000
     49     -19.2181      2.00000
     50     -19.2181      2.00000
     51     -19.2180      2.00000
     52     -19.2180      2.00000
     53     -19.2179      2.00000
     54     -19.2179      2.00000
     55     -19.2179      2.00000
     56     -19.2178      2.00000
     57     -19.2178      2.00000
     58     -19.2178      2.00000
     59     -19.2178      2.00000
     60     -19.2177      2.00000
     61     -19.2177      2.00000
     62     -19.2176      2.00000
     63     -19.2176      2.00000
     64     -19.2175      2.00000
     65     -19.2174      2.00000
     66     -19.2173      2.00000
     67     -19.2166      2.00000
     68     -19.2165      2.00000
     69     -19.2155      2.00000
     70     -19.2154      2.00000
     71     -19.2153      2.00000
     72     -19.2153      2.00000
     73     -19.2151      2.00000
     74     -19.2151      2.00000
     75     -19.2150      2.00000
     76     -19.2150      2.00000
     77     -19.2148      2.00000
     78     -19.2145      2.00000
     79     -19.2145      2.00000
     80     -19.2145      2.00000
     81     -19.2143      2.00000
     82     -19.2143      2.00000
     83     -19.2142      2.00000
     84     -19.2141      2.00000
     85     -19.2141      2.00000
     86     -19.2141      2.00000
     87     -19.2140      2.00000
     88     -19.2139      2.00000
     89     -19.2138      2.00000
     90     -19.2138      2.00000
     91     -19.2137      2.00000
     92     -19.2137      2.00000
     93     -19.2137      2.00000
     94     -19.2137      2.00000
     95     -19.2135      2.00000
     96     -19.2135      2.00000
     97     -19.2134      2.00000
     98     -19.2134      2.00000
     99     -19.2133      2.00000
    100     -19.2133      2.00000
    101     -19.2132      2.00000
    102     -19.2132      2.00000
    103     -19.2132      2.00000
    104     -19.2131      2.00000
    105     -19.2130      2.00000
    106     -19.2129      2.00000
    107     -19.2129      2.00000
    108     -19.2127      2.00000
    109     -19.2127      2.00000
    110     -19.2127      2.00000
    111     -19.2126      2.00000
    112     -19.2126      2.00000
    113     -19.2126      2.00000
    114     -19.2125      2.00000
    115     -19.2124      2.00000
    116     -19.2124      2.00000
    117     -19.2124      2.00000
    118     -19.2123      2.00000
    119     -19.2123      2.00000
    120     -19.2122      2.00000
    121     -19.2122      2.00000
    122     -19.2122      2.00000
    123     -19.2121      2.00000
    124     -19.2121      2.00000
    125     -19.2120      2.00000
    126     -19.2119      2.00000
    127     -19.2118      2.00000
    128     -19.2118      2.00000
    129     -19.2117      2.00000
    130     -19.2117      2.00000
    131     -19.2117      2.00000
    132     -19.2116      2.00000
    133     -19.2116      2.00000
    134     -19.2116      2.00000
    135     -19.2116      2.00000
    136     -19.2115      2.00000
    137     -19.2115      2.00000
    138     -19.2114      2.00000
    139     -19.2114      2.00000
    140     -19.2114      2.00000
    141     -19.2114      2.00000
    142     -19.2114      2.00000
    143     -19.2113      2.00000
    144     -19.2112      2.00000
    145     -19.2112      2.00000
    146     -19.2112      2.00000
    147     -19.2111      2.00000
    148     -19.2111      2.00000
    149     -19.2111      2.00000
    150     -19.2110      2.00000
    151     -19.2110      2.00000
    152     -19.2109      2.00000
    153     -19.2109      2.00000
    154     -19.2108      2.00000
    155     -19.2107      2.00000
    156     -19.2107      2.00000
    157     -19.2106      2.00000
    158     -19.2106      2.00000
    159     -19.2105      2.00000
    160     -19.2105      2.00000
    161     -19.2105      2.00000
    162     -19.2104      2.00000
    163     -19.2103      2.00000
    164     -19.2103      2.00000
    165     -19.2102      2.00000
    166     -19.2101      2.00000
    167     -19.2099      2.00000
    168     -19.2098      2.00000
    169     -19.2093      2.00000
    170     -19.2092      2.00000
    171     -19.2090      2.00000
    172     -19.2089      2.00000
    173     -19.2089      2.00000
    174     -19.2088      2.00000
    175     -19.2087      2.00000
    176     -19.2087      2.00000
    177     -19.2086      2.00000
    178     -19.2086      2.00000
    179     -19.2083      2.00000
    180     -19.2083      2.00000
    181     -19.2078      2.00000
    182     -19.2078      2.00000
    183     -19.2077      2.00000
    184     -19.2077      2.00000
    185     -19.2076      2.00000
    186     -19.2076      2.00000
    187     -19.2076      2.00000
    188     -19.2076      2.00000
    189     -19.2075      2.00000
    190     -19.2072      2.00000
    191     -19.2071      2.00000
    192     -19.2069      2.00000
    193     -19.1966      2.00000
    194     -19.1966      2.00000
    195     -19.1960      2.00000
    196     -19.1956      2.00000
    197     -19.1956      2.00000
    198     -19.1952      2.00000
    199     -19.1951      2.00000
    200     -19.1951      2.00000
    201     -19.1947      2.00000
    202     -19.1947      2.00000
    203     -19.1946      2.00000
    204     -19.1945      2.00000
    205     -19.1945      2.00000
    206     -19.1944      2.00000
    207     -19.1944      2.00000
    208     -19.1943      2.00000
    209     -19.1943      2.00000
    210     -19.1942      2.00000
    211     -19.1941      2.00000
    212     -19.1941      2.00000
    213     -19.1941      2.00000
    214     -19.1940      2.00000
    215     -19.1940      2.00000
    216     -19.1939      2.00000
    217     -19.1937      2.00000
    218     -19.1937      2.00000
    219     -19.1936      2.00000
    220     -19.1935      2.00000
    221     -19.1935      2.00000
    222     -19.1934      2.00000
    223     -19.1934      2.00000
    224     -19.1934      2.00000
    225     -19.1933      2.00000
    226     -19.1933      2.00000
    227     -19.1932      2.00000
    228     -19.1931      2.00000
    229     -19.1929      2.00000
    230     -19.1929      2.00000
    231     -19.1928      2.00000
    232     -19.1928      2.00000
    233     -19.1928      2.00000
    234     -19.1927      2.00000
    235     -19.1927      2.00000
    236     -19.1927      2.00000
    237     -19.1927      2.00000
    238     -19.1926      2.00000
    239     -19.1926      2.00000
    240     -19.1925      2.00000
    241     -19.1925      2.00000
    242     -19.1924      2.00000
    243     -19.1924      2.00000
    244     -19.1924      2.00000
    245     -19.1923      2.00000
    246     -19.1923      2.00000
    247     -19.1923      2.00000
    248     -19.1923      2.00000
    249     -19.1922      2.00000
    250     -19.1922      2.00000
    251     -19.1921      2.00000
    252     -19.1920      2.00000
    253     -19.1920      2.00000
    254     -19.1917      2.00000
    255     -19.1917      2.00000
    256     -19.1916      2.00000
    257     -19.1916      2.00000
    258     -19.1915      2.00000
    259     -19.1915      2.00000
    260     -19.1915      2.00000
    261     -19.1915      2.00000
    262     -19.1914      2.00000
    263     -19.1914      2.00000
    264     -19.1913      2.00000
    265     -19.1913      2.00000
    266     -19.1913      2.00000
    267     -19.1913      2.00000
    268     -19.1912      2.00000
    269     -19.1912      2.00000
    270     -19.1912      2.00000
    271     -19.1912      2.00000
    272     -19.1911      2.00000
    273     -19.1911      2.00000
    274     -19.1910      2.00000
    275     -19.1909      2.00000
    276     -19.1909      2.00000
    277     -19.1909      2.00000
    278     -19.1908      2.00000
    279     -19.1908      2.00000
    280     -19.1908      2.00000
    281     -19.1907      2.00000
    282     -19.1907      2.00000
    283     -19.1906      2.00000
    284     -19.1906      2.00000
    285     -19.1905      2.00000
    286     -19.1905      2.00000
    287     -19.1904      2.00000
    288     -19.1904      2.00000
    289     -19.1903      2.00000
    290     -19.1903      2.00000
    291     -19.1903      2.00000
    292     -19.1902      2.00000
    293     -19.1902      2.00000
    294     -19.1901      2.00000
    295     -19.1899      2.00000
    296     -19.1899      2.00000
    297     -19.1899      2.00000
    298     -19.1899      2.00000
    299     -19.1899      2.00000
    300     -19.1898      2.00000
    301     -19.1898      2.00000
    302     -19.1898      2.00000
    303     -19.1898      2.00000
    304     -19.1897      2.00000
    305     -19.1897      2.00000
    306     -19.1896      2.00000
    307     -19.1896      2.00000
    308     -19.1895      2.00000
    309     -19.1895      2.00000
    310     -19.1894      2.00000
    311     -19.1893      2.00000
    312     -19.1893      2.00000
    313     -19.1890      2.00000
    314     -19.1890      2.00000
    315     -19.1889      2.00000
    316     -19.1883      2.00000
    317     -19.1883      2.00000
    318     -19.1882      2.00000
    319     -19.1875      2.00000
    320     -19.1874      2.00000
    321      -6.9934      2.00000
    322      -6.7412      2.00000
    323      -6.4106      2.00000
    324      -6.4103      2.00000
    325      -6.4100      2.00000
    326      -6.3209      2.00000
    327      -6.3206      2.00000
    328      -6.3203      2.00000
    329      -6.0950      2.00000
    330      -6.0947      2.00000
    331      -6.0944      2.00000
    332      -5.8050      2.00000
    333      -5.7047      2.00000
    334      -5.7043      2.00000
    335      -5.7041      2.00000
    336      -5.6625      2.00000
    337      -5.6622      2.00000
    338      -5.6619      2.00000
    339      -5.2547      2.00000
    340      -5.1366      2.00000
    341      -5.1362      2.00000
    342      -5.1360      2.00000
    343      -5.1221      2.00000
    344      -5.1215      2.00000
    345      -5.1214      2.00000
    346      -5.1213      2.00000
    347      -5.1213      2.00000
    348      -5.1202      2.00000
    349      -4.9353      2.00000
    350      -4.9349      2.00000
    351      -4.9343      2.00000
    352      -4.9156      2.00000
    353      -4.9149      2.00000
    354      -4.9148      2.00000
    355      -4.9148      2.00000
    356      -4.9147      2.00000
    357      -4.9137      2.00000
    358      -4.8102      2.00000
    359      -4.8098      2.00000
    360      -4.8092      2.00000
    361      -4.6417      2.00000
    362      -4.6412      2.00000
    363      -4.6411      2.00000
    364      -4.3254      2.00000
    365      -4.3247      2.00000
    366      -4.3247      2.00000
    367      -4.2601      2.00000
    368      -4.2597      2.00000
    369      -4.2591      2.00000
    370      -4.1697      2.00000
    371      -4.1690      2.00000
    372      -4.1688      2.00000
    373      -4.1688      2.00000
    374      -4.1688      2.00000
    375      -4.1677      2.00000
    376      -3.8503      2.00000
    377      -3.8498      2.00000
    378      -3.8492      2.00000
    379      -3.7275      2.00000
    380      -3.7266      2.00000
    381      -3.7265      2.00000
    382      -3.7265      2.00000
    383      -3.7264      2.00000
    384      -3.7254      2.00000
    385      -2.3909      2.00000
    386      -2.3905      2.00000
    387      -2.3903      2.00000
    388      -2.3658      2.00000
    389      -2.3653      2.00000
    390      -2.3652      2.00000
    391      -2.3652      2.00000
    392      -2.3650      2.00000
    393      -2.3648      2.00000
    394      -1.9961      2.00000
    395      -1.9953      2.00000
    396      -1.9952      2.00000
    397      -1.9952      2.00000
    398      -1.9949      2.00000
    399      -1.9948      2.00000
    400      -1.9771      2.00000
    401      -1.9769      2.00000
    402      -1.9751      2.00000
    403      -1.9108      2.00000
    404      -1.9101      2.00000
    405      -1.9099      2.00000
    406      -1.8792      2.00000
    407      -1.8788      2.00000
    408      -1.8786      2.00000
    409      -1.7286      2.00000
    410      -1.7279      2.00000
    411      -1.7278      2.00000
    412      -1.5516      2.00000
    413      -1.5514      2.00000
    414      -1.5500      2.00000
    415      -1.5377      2.00000
    416      -1.2755      2.00000
    417      -1.2744      2.00000
    418      -1.2744      2.00000
    419      -1.2743      2.00000
    420      -1.2741      2.00000
    421      -1.2741      2.00000
    422      -0.9495      2.00000
    423      -0.9483      2.00000
    424      -0.9483      2.00000
    425      -0.9482      2.00000
    426      -0.9481      2.00000
    427      -0.9480      2.00000
    428      -0.8019      2.00000
    429      -0.8017      2.00000
    430      -0.8004      2.00000
    431      -0.4808      2.00000
    432      -0.1328      2.00000
    433      -0.1325      2.00000
    434      -0.1319      2.00000
    435       0.1554      2.00000
    436       0.1558      2.00000
    437       0.1567      2.00000
    438       0.3874      2.00000
    439       0.3878      2.00000
    440       0.3880      2.00000
    441       1.1235      2.00000
    442       1.1237      2.00000
    443       1.1239      2.00000
    444       1.1240      2.00000
    445       1.1242      2.00000
    446       1.1244      2.00000
    447       1.1408      2.00000
    448       1.1411      2.00000
    449       1.1414      2.00000
    450       1.2221      2.00000
    451       1.2223      2.00000
    452       1.2227      2.00000
    453       1.2228      2.00000
    454       1.2230      2.00000
    455       1.2231      2.00000
    456       1.2318      2.00000
    457       1.2322      2.00000
    458       1.2326      2.00000
    459       1.3282      2.00000
    460       1.3287      2.00000
    461       1.3288      2.00000
    462       1.4961      2.00000
    463       1.4967      2.00000
    464       1.4967      2.00000
    465       1.5361      2.00000
    466       1.5362      2.00000
    467       1.5366      2.00000
    468       1.6063      2.00000
    469       1.6063      2.00000
    470       1.6069      2.00000
    471       1.6071      2.00000
    472       1.6072      2.00000
    473       1.6075      2.00000
    474       1.8443      2.00000
    475       1.8443      2.00000
    476       1.8451      2.00000
    477       1.8452      2.00000
    478       1.8453      2.00000
    479       1.8455      2.00000
    480       1.8640      2.00000
    481       1.8641      2.00000
    482       1.8643      2.00000
    483       1.8643      2.00000
    484       1.8647      2.00000
    485       1.8649      2.00000
    486       1.9432      2.00000
    487       1.9434      2.00000
    488       1.9438      2.00000
    489       2.1113      2.00000
    490       2.1117      2.00000
    491       2.1119      2.00000
    492       2.1889      2.00000
    493       2.1892      2.00000
    494       2.1893      2.00000
    495       2.2272      2.00000
    496       2.2274      2.00000
    497       2.2281      2.00000
    498       2.2966      2.00000
    499       2.2969      2.00000
    500       2.2969      2.00000
    501       2.4093      2.00000
    502       2.4853      2.00000
    503       2.4854      2.00000
    504       2.4856      2.00000
    505       2.4856      2.00000
    506       2.4859      2.00000
    507       2.4864      2.00000
    508       2.5182      2.00000
    509       2.5185      2.00000
    510       2.5185      2.00000
    511       2.7327      2.00000
    512       2.7331      2.00000
    513       2.7331      2.00000
    514       2.8319      2.00000
    515       2.8322      2.00000
    516       2.8324      2.00000
    517       2.9465      2.00000
    518       2.9468      2.00000
    519       2.9470      2.00000
    520       2.9624      2.00000
    521       2.9625      2.00000
    522       2.9627      2.00000
    523       2.9627      2.00000
    524       2.9630      2.00000
    525       2.9642      2.00000
    526       3.0375      2.00000
    527       3.0379      2.00000
    528       3.0381      2.00000
    529       3.1929      2.00000
    530       3.1932      2.00000
    531       3.1940      2.00000
    532       3.2817      2.00000
    533       3.2821      2.00000
    534       3.2821      2.00000
    535       3.3372      2.00000
    536       3.3376      2.00000
    537       3.3378      2.00000
    538       3.3447      2.00000
    539       3.3450      2.00000
    540       3.3456      2.00000
    541       3.4119      2.00000
    542       3.4119      2.00000
    543       3.4120      2.00000
    544       3.4120      2.00000
    545       3.4125      2.00000
    546       3.4137      2.00000
    547       3.5034      2.00000
    548       3.5034      2.00000
    549       3.5046      2.00000
    550       3.5629      2.00000
    551       3.5632      2.00000
    552       3.5634      2.00000
    553       3.6645      2.00000
    554       3.6649      2.00000
    555       3.6650      2.00000
    556       3.8855      2.00000
    557       3.8861      2.00000
    558       3.9758      2.00000
    559       3.9763      2.00000
    560       3.9764      2.00000
    561       4.0030      2.00000
    562       4.0471      2.00000
    563       4.0477      2.00000
    564       4.0680      2.00000
    565       4.0681      2.00000
    566       4.0695      2.00000
    567       4.1191      2.00000
    568       4.1196      2.00000
    569       4.1198      2.00000
    570       4.3673      2.00000
    571       4.3679      2.00000
    572       4.3680      2.00000
    573       4.6354      2.00000
    574       4.6359      2.00000
    575       4.9585      2.00000
    576       4.9591      2.00000
    577       5.9333      0.00000
    578       5.9337      0.00000
    579       5.9343      0.00000
    580       5.9529      0.00000
    581       6.1228      0.00000
    582       6.2202      0.00000
    583       6.2204      0.00000
    584       6.2210      0.00000
    585       6.3085      0.00000
    586       6.3085      0.00000
    587       6.3092      0.00000
    588       6.5319      0.00000
    589       6.5321      0.00000
    590       6.5323      0.00000
    591       6.5425      0.00000
    592       6.5427      0.00000
    593       6.5433      0.00000
    594       6.5601      0.00000
    595       6.5605      0.00000
    596       6.5606      0.00000
    597       6.7107      0.00000
    598       6.7698      0.00000
    599       6.7699      0.00000
    600       6.7704      0.00000
    601       6.7854      0.00000
    602       6.7858      0.00000
    603       6.7862      0.00000
    604       6.8720      0.00000
    605       6.8722      0.00000
    606       6.8723      0.00000
    607       6.8974      0.00000
    608       6.9733      0.00000
    609       6.9736      0.00000
    610       6.9739      0.00000
    611       6.9827      0.00000
    612       6.9832      0.00000
    613       6.9832      0.00000
    614       6.9833      0.00000
    615       6.9842      0.00000
    616       6.9844      0.00000
    617       7.0273      0.00000
    618       7.0274      0.00000
    619       7.0279      0.00000
    620       7.1163      0.00000
    621       7.1166      0.00000
    622       7.1169      0.00000
    623       7.2775      0.00000
    624       7.2785      0.00000
    625       7.2785      0.00000
    626       7.2785      0.00000
    627       7.2794      0.00000
    628       7.2795      0.00000
    629       7.4297      0.00000
    630       7.4299      0.00000
    631       7.4302      0.00000
    632       7.7994      0.00000
    633       7.8003      0.00000
    634       7.8004      0.00000
    635       7.8004      0.00000
    636       7.8011      0.00000
    637       7.8011      0.00000
    638       7.8485      0.00000
    639       7.8490      0.00000
    640       7.8506      0.00000
    641       7.8512      0.00000
    642       7.8514      0.00000
    643       7.8677      0.00000
    644       7.8682      0.00000
    645       7.8682      0.00000
    646       8.0449      0.00000
    647       8.0460      0.00000
    648       8.0460      0.00000
    649       8.1007      0.00000
    650       8.1011      0.00000
    651       8.1011      0.00000
    652       8.1012      0.00000
    653       8.1020      0.00000
    654       8.1022      0.00000
    655       8.1576      0.00000
    656       8.2902      0.00000
    657       8.2907      0.00000
    658       8.3257      0.00000
    659       8.3263      0.00000
    660       8.3263      0.00000
    661       8.4400      0.00000
    662       8.4401      0.00000
    663       8.4403      0.00000
    664       8.5268      0.00000
    665       8.5277      0.00000
    666       8.5278      0.00000
    667       8.6026      0.00000
    668       8.6032      0.00000
    669       8.6034      0.00000
    670       8.6876      0.00000
    671       8.6883      0.00000
    672       8.7042      0.00000
    673       8.7045      0.00000
    674       8.7046      0.00000
    675       8.7046      0.00000
    676       8.7055      0.00000
    677       8.7059      0.00000
    678       8.7328      0.00000
    679       8.7335      0.00000
    680       8.8929      0.00000
    681       8.8935      0.00000
    682       8.8936      0.00000
    683       8.9648      0.00000
    684       8.9655      0.00000
    685       8.9657      0.00000
    686       8.9886      0.00000
    687       8.9893      0.00000
    688       8.9894      0.00000
    689       9.0861      0.00000
    690       9.0866      0.00000
    691       9.0869      0.00000
    692       9.1009      0.00000
    693       9.1010      0.00000
    694       9.1011      0.00000
    695       9.1014      0.00000
    696       9.1021      0.00000
    697       9.1025      0.00000
    698       9.1713      0.00000
    699       9.1718      0.00000
    700       9.1719      0.00000
    701       9.2187      0.00000
    702       9.2192      0.00000
    703       9.2209      0.00000
    704       9.4164      0.00000

 k-point     5 :       0.3333    0.3333    0.0000
  band No.  band energies     occupation 
      1     -19.2239      2.00000
      2     -19.2234      2.00000
      3     -19.2233      2.00000
      4     -19.2227      2.00000
      5     -19.2218      2.00000
      6     -19.2217      2.00000
      7     -19.2213      2.00000
      8     -19.2213      2.00000
      9     -19.2212      2.00000
     10     -19.2212      2.00000
     11     -19.2212      2.00000
     12     -19.2211      2.00000
     13     -19.2210      2.00000
     14     -19.2208      2.00000
     15     -19.2207      2.00000
     16     -19.2206      2.00000
     17     -19.2206      2.00000
     18     -19.2205      2.00000
     19     -19.2205      2.00000
     20     -19.2204      2.00000
     21     -19.2203      2.00000
     22     -19.2202      2.00000
     23     -19.2198      2.00000
     24     -19.2194      2.00000
     25     -19.2193      2.00000
     26     -19.2193      2.00000
     27     -19.2192      2.00000
     28     -19.2191      2.00000
     29     -19.2190      2.00000
     30     -19.2188      2.00000
     31     -19.2188      2.00000
     32     -19.2187      2.00000
     33     -19.2187      2.00000
     34     -19.2187      2.00000
     35     -19.2186      2.00000
     36     -19.2186      2.00000
     37     -19.2185      2.00000
     38     -19.2185      2.00000
     39     -19.2185      2.00000
     40     -19.2184      2.00000
     41     -19.2184      2.00000
     42     -19.2184      2.00000
     43     -19.2184      2.00000
     44     -19.2184      2.00000
     45     -19.2183      2.00000
     46     -19.2183      2.00000
     47     -19.2183      2.00000
     48     -19.2182      2.00000
     49     -19.2181      2.00000
     50     -19.2181      2.00000
     51     -19.2181      2.00000
     52     -19.2180      2.00000
     53     -19.2180      2.00000
     54     -19.2180      2.00000
     55     -19.2179      2.00000
     56     -19.2179      2.00000
     57     -19.2178      2.00000
     58     -19.2178      2.00000
     59     -19.2177      2.00000
     60     -19.2177      2.00000
     61     -19.2176      2.00000
     62     -19.2175      2.00000
     63     -19.2175      2.00000
     64     -19.2174      2.00000
     65     -19.2172      2.00000
     66     -19.2171      2.00000
     67     -19.2163      2.00000
     68     -19.2162      2.00000
     69     -19.2161      2.00000
     70     -19.2161      2.00000
     71     -19.2157      2.00000
     72     -19.2155      2.00000
     73     -19.2155      2.00000
     74     -19.2154      2.00000
     75     -19.2153      2.00000
     76     -19.2152      2.00000
     77     -19.2146      2.00000
     78     -19.2145      2.00000
     79     -19.2144      2.00000
     80     -19.2143      2.00000
     81     -19.2141      2.00000
     82     -19.2140      2.00000
     83     -19.2139      2.00000
     84     -19.2138      2.00000
     85     -19.2138      2.00000
     86     -19.2137      2.00000
     87     -19.2136      2.00000
     88     -19.2135      2.00000
     89     -19.2135      2.00000
     90     -19.2134      2.00000
     91     -19.2134      2.00000
     92     -19.2133      2.00000
     93     -19.2133      2.00000
     94     -19.2133      2.00000
     95     -19.2132      2.00000
     96     -19.2132      2.00000
     97     -19.2132      2.00000
     98     -19.2132      2.00000
     99     -19.2131      2.00000
    100     -19.2131      2.00000
    101     -19.2131      2.00000
    102     -19.2130      2.00000
    103     -19.2130      2.00000
    104     -19.2130      2.00000
    105     -19.2130      2.00000
    106     -19.2129      2.00000
    107     -19.2129      2.00000
    108     -19.2129      2.00000
    109     -19.2129      2.00000
    110     -19.2129      2.00000
    111     -19.2129      2.00000
    112     -19.2128      2.00000
    113     -19.2128      2.00000
    114     -19.2128      2.00000
    115     -19.2128      2.00000
    116     -19.2127      2.00000
    117     -19.2127      2.00000
    118     -19.2127      2.00000
    119     -19.2127      2.00000
    120     -19.2127      2.00000
    121     -19.2127      2.00000
    122     -19.2126      2.00000
    123     -19.2126      2.00000
    124     -19.2126      2.00000
    125     -19.2126      2.00000
    126     -19.2126      2.00000
    127     -19.2125      2.00000
    128     -19.2125      2.00000
    129     -19.2125      2.00000
    130     -19.2125      2.00000
    131     -19.2124      2.00000
    132     -19.2124      2.00000
    133     -19.2124      2.00000
    134     -19.2122      2.00000
    135     -19.2121      2.00000
    136     -19.2120      2.00000
    137     -19.2119      2.00000
    138     -19.2119      2.00000
    139     -19.2117      2.00000
    140     -19.2116      2.00000
    141     -19.2110      2.00000
    142     -19.2108      2.00000
    143     -19.2107      2.00000
    144     -19.2107      2.00000
    145     -19.2107      2.00000
    146     -19.2106      2.00000
    147     -19.2106      2.00000
    148     -19.2106      2.00000
    149     -19.2105      2.00000
    150     -19.2105      2.00000
    151     -19.2104      2.00000
    152     -19.2104      2.00000
    153     -19.2104      2.00000
    154     -19.2103      2.00000
    155     -19.2103      2.00000
    156     -19.2103      2.00000
    157     -19.2103      2.00000
    158     -19.2102      2.00000
    159     -19.2102      2.00000
    160     -19.2102      2.00000
    161     -19.2101      2.00000
    162     -19.2101      2.00000
    163     -19.2100      2.00000
    164     -19.2100      2.00000
    165     -19.2099      2.00000
    166     -19.2097      2.00000
    167     -19.2097      2.00000
    168     -19.2093      2.00000
    169     -19.2092      2.00000
    170     -19.2092      2.00000
    171     -19.2091      2.00000
    172     -19.2091      2.00000
    173     -19.2090      2.00000
    174     -19.2090      2.00000
    175     -19.2090      2.00000
    176     -19.2089      2.00000
    177     -19.2089      2.00000
    178     -19.2088      2.00000
    179     -19.2086      2.00000
    180     -19.2085      2.00000
    181     -19.2082      2.00000
    182     -19.2082      2.00000
    183     -19.2081      2.00000
    184     -19.2080      2.00000
    185     -19.2080      2.00000
    186     -19.2079      2.00000
    187     -19.2075      2.00000
    188     -19.2074      2.00000
    189     -19.2072      2.00000
    190     -19.2072      2.00000
    191     -19.2072      2.00000
    192     -19.2067      2.00000
    193     -19.1965      2.00000
    194     -19.1965      2.00000
    195     -19.1959      2.00000
    196     -19.1957      2.00000
    197     -19.1956      2.00000
    198     -19.1952      2.00000
    199     -19.1950      2.00000
    200     -19.1950      2.00000
    201     -19.1948      2.00000
    202     -19.1947      2.00000
    203     -19.1947      2.00000
    204     -19.1947      2.00000
    205     -19.1946      2.00000
    206     -19.1946      2.00000
    207     -19.1945      2.00000
    208     -19.1945      2.00000
    209     -19.1944      2.00000
    210     -19.1944      2.00000
    211     -19.1942      2.00000
    212     -19.1941      2.00000
    213     -19.1939      2.00000
    214     -19.1939      2.00000
    215     -19.1938      2.00000
    216     -19.1938      2.00000
    217     -19.1937      2.00000
    218     -19.1937      2.00000
    219     -19.1936      2.00000
    220     -19.1934      2.00000
    221     -19.1933      2.00000
    222     -19.1932      2.00000
    223     -19.1932      2.00000
    224     -19.1932      2.00000
    225     -19.1931      2.00000
    226     -19.1931      2.00000
    227     -19.1930      2.00000
    228     -19.1930      2.00000
    229     -19.1930      2.00000
    230     -19.1929      2.00000
    231     -19.1929      2.00000
    232     -19.1929      2.00000
    233     -19.1929      2.00000
    234     -19.1928      2.00000
    235     -19.1928      2.00000
    236     -19.1928      2.00000
    237     -19.1928      2.00000
    238     -19.1927      2.00000
    239     -19.1927      2.00000
    240     -19.1926      2.00000
    241     -19.1926      2.00000
    242     -19.1925      2.00000
    243     -19.1925      2.00000
    244     -19.1924      2.00000
    245     -19.1924      2.00000
    246     -19.1924      2.00000
    247     -19.1923      2.00000
    248     -19.1922      2.00000
    249     -19.1920      2.00000
    250     -19.1919      2.00000
    251     -19.1919      2.00000
    252     -19.1918      2.00000
    253     -19.1918      2.00000
    254     -19.1918      2.00000
    255     -19.1917      2.00000
    256     -19.1916      2.00000
    257     -19.1916      2.00000
    258     -19.1916      2.00000
    259     -19.1915      2.00000
    260     -19.1915      2.00000
    261     -19.1914      2.00000
    262     -19.1914      2.00000
    263     -19.1914      2.00000
    264     -19.1913      2.00000
    265     -19.1913      2.00000
    266     -19.1913      2.00000
    267     -19.1912      2.00000
    268     -19.1912      2.00000
    269     -19.1912      2.00000
    270     -19.1912      2.00000
    271     -19.1911      2.00000
    272     -19.1911      2.00000
    273     -19.1910      2.00000
    274     -19.1910      2.00000
    275     -19.1909      2.00000
    276     -19.1909      2.00000
    277     -19.1908      2.00000
    278     -19.1908      2.00000
    279     -19.1908      2.00000
    280     -19.1907      2.00000
    281     -19.1907      2.00000
    282     -19.1906      2.00000
    283     -19.1906      2.00000
    284     -19.1905      2.00000
    285     -19.1905      2.00000
    286     -19.1905      2.00000
    287     -19.1905      2.00000
    288     -19.1905      2.00000
    289     -19.1904      2.00000
    290     -19.1904      2.00000
    291     -19.1903      2.00000
    292     -19.1903      2.00000
    293     -19.1902      2.00000
    294     -19.1902      2.00000
    295     -19.1902      2.00000
    296     -19.1902      2.00000
    297     -19.1901      2.00000
    298     -19.1901      2.00000
    299     -19.1900      2.00000
    300     -19.1900      2.00000
    301     -19.1898      2.00000
    302     -19.1897      2.00000
    303     -19.1896      2.00000
    304     -19.1895      2.00000
    305     -19.1895      2.00000
    306     -19.1894      2.00000
    307     -19.1894      2.00000
    308     -19.1893      2.00000
    309     -19.1893      2.00000
    310     -19.1893      2.00000
    311     -19.1892      2.00000
    312     -19.1892      2.00000
    313     -19.1891      2.00000
    314     -19.1890      2.00000
    315     -19.1889      2.00000
    316     -19.1884      2.00000
    317     -19.1884      2.00000
    318     -19.1883      2.00000
    319     -19.1875      2.00000
    320     -19.1874      2.00000
    321      -6.9649      2.00000
    322      -6.6257      2.00000
    323      -6.5476      2.00000
    324      -6.5472      2.00000
    325      -6.5471      2.00000
    326      -6.5467      2.00000
    327      -5.9668      2.00000
    328      -5.9662      2.00000
    329      -5.9662      2.00000
    330      -5.9656      2.00000
    331      -5.9167      2.00000
    332      -5.9163      2.00000
    333      -5.9162      2.00000
    334      -5.9158      2.00000
    335      -5.6685      2.00000
    336      -5.6679      2.00000
    337      -5.6679      2.00000
    338      -5.6673      2.00000
    339      -5.3171      2.00000
    340      -5.3166      2.00000
    341      -5.3166      2.00000
    342      -5.3161      2.00000
    343      -5.3031      2.00000
    344      -5.1438      2.00000
    345      -5.1431      2.00000
    346      -5.1430      2.00000
    347      -5.1423      2.00000
    348      -5.0359      2.00000
    349      -5.0352      2.00000
    350      -5.0351      2.00000
    351      -5.0344      2.00000
    352      -4.6705      2.00000
    353      -4.6691      2.00000
    354      -4.6691      2.00000
    355      -4.6690      2.00000
    356      -4.6690      2.00000
    357      -4.6689      2.00000
    358      -4.6689      2.00000
    359      -4.6676      2.00000
    360      -4.5777      2.00000
    361      -4.5771      2.00000
    362      -4.5771      2.00000
    363      -4.5765      2.00000
    364      -4.4960      2.00000
    365      -4.4947      2.00000
    366      -4.4946      2.00000
    367      -4.4946      2.00000
    368      -4.4946      2.00000
    369      -4.4946      2.00000
    370      -4.4945      2.00000
    371      -4.4931      2.00000
    372      -4.3641      2.00000
    373      -3.9061      2.00000
    374      -3.9054      2.00000
    375      -3.9054      2.00000
    376      -3.9048      2.00000
    377      -3.8947      2.00000
    378      -3.8940      2.00000
    379      -3.8940      2.00000
    380      -3.8932      2.00000
    381      -3.5418      2.00000
    382      -3.5410      2.00000
    383      -3.4975      2.00000
    384      -3.4967      2.00000
    385      -2.7026      2.00000
    386      -2.7026      2.00000
    387      -2.6272      2.00000
    388      -2.6272      2.00000
    389      -2.2764      2.00000
    390      -2.2759      2.00000
    391      -2.2758      2.00000
    392      -2.2754      2.00000
    393      -2.1793      2.00000
    394      -2.1788      2.00000
    395      -2.1787      2.00000
    396      -2.1783      2.00000
    397      -1.8900      2.00000
    398      -1.8887      2.00000
    399      -1.8886      2.00000
    400      -1.8886      2.00000
    401      -1.8885      2.00000
    402      -1.8884      2.00000
    403      -1.8883      2.00000
    404      -1.8870      2.00000
    405      -1.7931      2.00000
    406      -1.7544      2.00000
    407      -1.7536      2.00000
    408      -1.7536      2.00000
    409      -1.7529      2.00000
    410      -1.5193      2.00000
    411      -1.5187      2.00000
    412      -1.5186      2.00000
    413      -1.5180      2.00000
    414      -1.3723      2.00000
    415      -1.3711      2.00000
    416      -1.3710      2.00000
    417      -1.3709      2.00000
    418      -1.3709      2.00000
    419      -1.3708      2.00000
    420      -1.3707      2.00000
    421      -1.3695      2.00000
    422      -1.1902      2.00000
    423      -1.1895      2.00000
    424      -1.1894      2.00000
    425      -1.1887      2.00000
    426      -0.8864      2.00000
    427      -0.8859      2.00000
    428      -0.8857      2.00000
    429      -0.8852      2.00000
    430      -0.4290      2.00000
    431      -0.0575      2.00000
    432      -0.0570      2.00000
    433      -0.0568      2.00000
    434      -0.0563      2.00000
    435      -0.0299      2.00000
    436      -0.0293      2.00000
    437      -0.0293      2.00000
    438      -0.0286      2.00000
    439       0.6822      2.00000
    440       0.6829      2.00000
    441       0.6829      2.00000
    442       0.6836      2.00000
    443       1.0025      2.00000
    444       1.0028      2.00000
    445       1.0029      2.00000
    446       1.0032      2.00000
    447       1.0066      2.00000
    448       1.0068      2.00000
    449       1.0069      2.00000
    450       1.0072      2.00000
    451       1.0454      2.00000
    452       1.0456      2.00000
    453       1.0458      2.00000
    454       1.0460      2.00000
    455       1.5119      2.00000
    456       1.5119      2.00000
    457       1.5590      2.00000
    458       1.5590      2.00000
    459       1.5950      2.00000
    460       1.5954      2.00000
    461       1.5955      2.00000
    462       1.5958      2.00000
    463       1.5958      2.00000
    464       1.5961      2.00000
    465       1.5963      2.00000
    466       1.5966      2.00000
    467       1.7133      2.00000
    468       1.7134      2.00000
    469       1.7137      2.00000
    470       1.7138      2.00000
    471       1.7138      2.00000
    472       1.7139      2.00000
    473       1.7142      2.00000
    474       1.7143      2.00000
    475       1.7995      2.00000
    476       1.7999      2.00000
    477       1.8003      2.00000
    478       1.8007      2.00000
    479       1.9522      2.00000
    480       1.9522      2.00000
    481       1.9652      2.00000
    482       1.9653      2.00000
    483       2.0016      2.00000
    484       2.0020      2.00000
    485       2.0021      2.00000
    486       2.0026      2.00000
    487       2.0384      2.00000
    488       2.0387      2.00000
    489       2.0389      2.00000
    490       2.0392      2.00000
    491       2.0751      2.00000
    492       2.0754      2.00000
    493       2.0755      2.00000
    494       2.0758      2.00000
    495       2.3325      2.00000
    496       2.3328      2.00000
    497       2.4804      2.00000
    498       2.4809      2.00000
    499       2.4811      2.00000
    500       2.4812      2.00000
    501       2.4812      2.00000
    502       2.4813      2.00000
    503       2.4815      2.00000
    504       2.4820      2.00000
    505       2.5346      2.00000
    506       2.5662      2.00000
    507       2.5667      2.00000
    508       2.5668      2.00000
    509       2.5673      2.00000
    510       2.6634      2.00000
    511       2.6637      2.00000
    512       2.6678      2.00000
    513       2.6683      2.00000
    514       2.6684      2.00000
    515       2.6689      2.00000
    516       2.7777      2.00000
    517       2.7781      2.00000
    518       2.7782      2.00000
    519       2.7786      2.00000
    520       2.9442      2.00000
    521       2.9446      2.00000
    522       2.9449      2.00000
    523       2.9450      2.00000
    524       2.9450      2.00000
    525       2.9451      2.00000
    526       2.9454      2.00000
    527       2.9458      2.00000
    528       3.0070      2.00000
    529       3.0074      2.00000
    530       3.0074      2.00000
    531       3.0079      2.00000
    532       3.1100      2.00000
    533       3.1104      2.00000
    534       3.1106      2.00000
    535       3.1111      2.00000
    536       3.2379      2.00000
    537       3.2384      2.00000
    538       3.2385      2.00000
    539       3.2391      2.00000
    540       3.4318      2.00000
    541       3.4321      2.00000
    542       3.4323      2.00000
    543       3.4326      2.00000
    544       3.6843      2.00000
    545       3.6846      2.00000
    546       3.6848      2.00000
    547       3.6850      2.00000
    548       3.6964      2.00000
    549       3.6969      2.00000
    550       3.6970      2.00000
    551       3.6976      2.00000
    552       3.7488      2.00000
    553       3.7501      2.00000
    554       3.7503      2.00000
    555       3.7503      2.00000
    556       3.7505      2.00000
    557       3.7506      2.00000
    558       3.7508      2.00000
    559       3.7521      2.00000
    560       3.7793      2.00000
    561       3.7797      2.00000
    562       3.7799      2.00000
    563       3.7803      2.00000
    564       3.8028      2.00000
    565       3.8035      2.00000
    566       3.8037      2.00000
    567       3.8044      2.00000
    568       3.9047      2.00000
    569       3.9052      2.00000
    570       4.0441      2.00000
    571       4.6750      2.00000
    572       4.6758      2.00000
    573       4.7138      2.00000
    574       4.7147      2.00000
    575       4.7149      2.00000
    576       4.7158      2.00000
    577       5.7217      0.00000
    578       5.8500      0.00000
    579       6.3485      0.00000
    580       6.3494      0.00000
    581       6.3823      0.00000
    582       6.3829      0.00000
    583       6.3830      0.00000
    584       6.3836      0.00000
    585       6.4296      0.00000
    586       6.5387      0.00000
    587       6.5389      0.00000
    588       6.5390      0.00000
    589       6.5393      0.00000
    590       6.6425      0.00000
    591       6.6425      0.00000
    592       6.7639      0.00000
    593       6.8297      0.00000
    594       6.8308      0.00000
    595       6.8309      0.00000
    596       6.8310      0.00000
    597       6.8310      0.00000
    598       6.8311      0.00000
    599       6.8311      0.00000
    600       6.8322      0.00000
    601       6.8438      0.00000
    602       6.8440      0.00000
    603       6.8441      0.00000
    604       6.8444      0.00000
    605       6.8571      0.00000
    606       6.8575      0.00000
    607       6.8577      0.00000
    608       6.8583      0.00000
    609       6.9954      0.00000
    610       6.9959      0.00000
    611       6.9961      0.00000
    612       6.9966      0.00000
    613       7.1383      0.00000
    614       7.1386      0.00000
    615       7.1386      0.00000
    616       7.1389      0.00000
    617       7.1866      0.00000
    618       7.2112      0.00000
    619       7.2117      0.00000
    620       7.2118      0.00000
    621       7.2122      0.00000
    622       7.3330      0.00000
    623       7.3658      0.00000
    624       7.3667      0.00000
    625       7.3669      0.00000
    626       7.3669      0.00000
    627       7.3670      0.00000
    628       7.3670      0.00000
    629       7.3672      0.00000
    630       7.3682      0.00000
    631       7.5118      0.00000
    632       7.5327      0.00000
    633       7.5332      0.00000
    634       7.5332      0.00000
    635       7.5337      0.00000
    636       7.7099      0.00000
    637       7.7107      0.00000
    638       8.0043      0.00000
    639       8.0048      0.00000
    640       8.0048      0.00000
    641       8.0053      0.00000
    642       8.0150      0.00000
    643       8.0150      0.00000
    644       8.1261      0.00000
    645       8.1266      0.00000
    646       8.1268      0.00000
    647       8.1269      0.00000
    648       8.1270      0.00000
    649       8.1271      0.00000
    650       8.1273      0.00000
    651       8.1277      0.00000
    652       8.2141      0.00000
    653       8.2145      0.00000
    654       8.2436      0.00000
    655       8.2443      0.00000
    656       8.2443      0.00000
    657       8.2450      0.00000
    658       8.2784      0.00000
    659       8.2788      0.00000
    660       8.2790      0.00000
    661       8.2793      0.00000
    662       8.3552      0.00000
    663       8.3555      0.00000
    664       8.3555      0.00000
    665       8.3558      0.00000
    666       8.3671      0.00000
    667       8.3674      0.00000
    668       8.3680      0.00000
    669       8.3683      0.00000
    670       8.3934      0.00000
    671       8.3938      0.00000
    672       8.3939      0.00000
    673       8.3943      0.00000
    674       8.5094      0.00000
    675       8.5603      0.00000
    676       8.5607      0.00000
    677       8.5610      0.00000
    678       8.5614      0.00000
    679       8.6524      0.00000
    680       8.6528      0.00000
    681       8.6534      0.00000
    682       8.6538      0.00000
    683       8.8672      0.00000
    684       8.8680      0.00000
    685       8.8680      0.00000
    686       8.8687      0.00000
    687       8.9375      0.00000
    688       8.9380      0.00000
    689       8.9381      0.00000
    690       8.9385      0.00000
    691       8.9428      0.00000
    692       8.9436      0.00000
    693       8.9438      0.00000
    694       8.9439      0.00000
    695       8.9439      0.00000
    696       8.9440      0.00000
    697       8.9442      0.00000
    698       8.9452      0.00000
    699       9.1179      0.00000
    700       9.1184      0.00000
    701       9.1207      0.00000
    702       9.1356      0.00000
    703       9.2659      0.00000
    704       9.2736      0.00000

 k-point     6 :       0.0000    0.3333    0.3333
  band No.  band energies     occupation 
      1     -19.2239      2.00000
      2     -19.2234      2.00000
      3     -19.2233      2.00000
      4     -19.2227      2.00000
      5     -19.2218      2.00000
      6     -19.2218      2.00000
      7     -19.2214      2.00000
      8     -19.2213      2.00000
      9     -19.2212      2.00000
     10     -19.2212      2.00000
     11     -19.2211      2.00000
     12     -19.2211      2.00000
     13     -19.2210      2.00000
     14     -19.2207      2.00000
     15     -19.2207      2.00000
     16     -19.2206      2.00000
     17     -19.2206      2.00000
     18     -19.2205      2.00000
     19     -19.2205      2.00000
     20     -19.2204      2.00000
     21     -19.2202      2.00000
     22     -19.2202      2.00000
     23     -19.2198      2.00000
     24     -19.2194      2.00000
     25     -19.2194      2.00000
     26     -19.2193      2.00000
     27     -19.2192      2.00000
     28     -19.2191      2.00000
     29     -19.2190      2.00000
     30     -19.2189      2.00000
     31     -19.2187      2.00000
     32     -19.2187      2.00000
     33     -19.2187      2.00000
     34     -19.2187      2.00000
     35     -19.2186      2.00000
     36     -19.2186      2.00000
     37     -19.2185      2.00000
     38     -19.2185      2.00000
     39     -19.2185      2.00000
     40     -19.2185      2.00000
     41     -19.2184      2.00000
     42     -19.2184      2.00000
     43     -19.2184      2.00000
     44     -19.2183      2.00000
     45     -19.2183      2.00000
     46     -19.2183      2.00000
     47     -19.2183      2.00000
     48     -19.2182      2.00000
     49     -19.2181      2.00000
     50     -19.2181      2.00000
     51     -19.2180      2.00000
     52     -19.2180      2.00000
     53     -19.2180      2.00000
     54     -19.2179      2.00000
     55     -19.2179      2.00000
     56     -19.2179      2.00000
     57     -19.2178      2.00000
     58     -19.2178      2.00000
     59     -19.2177      2.00000
     60     -19.2177      2.00000
     61     -19.2176      2.00000
     62     -19.2176      2.00000
     63     -19.2174      2.00000
     64     -19.2174      2.00000
     65     -19.2173      2.00000
     66     -19.2170      2.00000
     67     -19.2163      2.00000
     68     -19.2162      2.00000
     69     -19.2161      2.00000
     70     -19.2161      2.00000
     71     -19.2158      2.00000
     72     -19.2155      2.00000
     73     -19.2155      2.00000
     74     -19.2153      2.00000
     75     -19.2152      2.00000
     76     -19.2152      2.00000
     77     -19.2146      2.00000
     78     -19.2145      2.00000
     79     -19.2145      2.00000
     80     -19.2143      2.00000
     81     -19.2141      2.00000
     82     -19.2140      2.00000
     83     -19.2139      2.00000
     84     -19.2139      2.00000
     85     -19.2138      2.00000
     86     -19.2137      2.00000
     87     -19.2137      2.00000
     88     -19.2135      2.00000
     89     -19.2134      2.00000
     90     -19.2134      2.00000
     91     -19.2134      2.00000
     92     -19.2133      2.00000
     93     -19.2133      2.00000
     94     -19.2132      2.00000
     95     -19.2132      2.00000
     96     -19.2132      2.00000
     97     -19.2131      2.00000
     98     -19.2131      2.00000
     99     -19.2131      2.00000
    100     -19.2131      2.00000
    101     -19.2131      2.00000
    102     -19.2130      2.00000
    103     -19.2130      2.00000
    104     -19.2130      2.00000
    105     -19.2130      2.00000
    106     -19.2130      2.00000
    107     -19.2129      2.00000
    108     -19.2129      2.00000
    109     -19.2129      2.00000
    110     -19.2129      2.00000
    111     -19.2129      2.00000
    112     -19.2128      2.00000
    113     -19.2128      2.00000
    114     -19.2128      2.00000
    115     -19.2128      2.00000
    116     -19.2128      2.00000
    117     -19.2127      2.00000
    118     -19.2127      2.00000
    119     -19.2127      2.00000
    120     -19.2127      2.00000
    121     -19.2126      2.00000
    122     -19.2126      2.00000
    123     -19.2126      2.00000
    124     -19.2126      2.00000
    125     -19.2126      2.00000
    126     -19.2126      2.00000
    127     -19.2126      2.00000
    128     -19.2125      2.00000
    129     -19.2125      2.00000
    130     -19.2124      2.00000
    131     -19.2124      2.00000
    132     -19.2124      2.00000
    133     -19.2124      2.00000
    134     -19.2122      2.00000
    135     -19.2122      2.00000
    136     -19.2120      2.00000
    137     -19.2119      2.00000
    138     -19.2118      2.00000
    139     -19.2116      2.00000
    140     -19.2116      2.00000
    141     -19.2109      2.00000
    142     -19.2108      2.00000
    143     -19.2108      2.00000
    144     -19.2107      2.00000
    145     -19.2107      2.00000
    146     -19.2106      2.00000
    147     -19.2106      2.00000
    148     -19.2105      2.00000
    149     -19.2105      2.00000
    150     -19.2105      2.00000
    151     -19.2104      2.00000
    152     -19.2104      2.00000
    153     -19.2104      2.00000
    154     -19.2104      2.00000
    155     -19.2103      2.00000
    156     -19.2103      2.00000
    157     -19.2103      2.00000
    158     -19.2102      2.00000
    159     -19.2102      2.00000
    160     -19.2101      2.00000
    161     -19.2101      2.00000
    162     -19.2101      2.00000
    163     -19.2100      2.00000
    164     -19.2099      2.00000
    165     -19.2099      2.00000
    166     -19.2098      2.00000
    167     -19.2097      2.00000
    168     -19.2093      2.00000
    169     -19.2092      2.00000
    170     -19.2092      2.00000
    171     -19.2091      2.00000
    172     -19.2091      2.00000
    173     -19.2090      2.00000
    174     -19.2090      2.00000
    175     -19.2090      2.00000
    176     -19.2089      2.00000
    177     -19.2089      2.00000
    178     -19.2088      2.00000
    179     -19.2086      2.00000
    180     -19.2085      2.00000
    181     -19.2082      2.00000
    182     -19.2082      2.00000
    183     -19.2081      2.00000
    184     -19.2081      2.00000
    185     -19.2080      2.00000
    186     -19.2079      2.00000
    187     -19.2073      2.00000
    188     -19.2073      2.00000
    189     -19.2072      2.00000
    190     -19.2072      2.00000
    191     -19.2072      2.00000
    192     -19.2069      2.00000
    193     -19.1965      2.00000
    194     -19.1965      2.00000
    195     -19.1960      2.00000
    196     -19.1957      2.00000
    197     -19.1956      2.00000
    198     -19.1952      2.00000
    199     -19.1950      2.00000
    200     -19.1949      2.00000
    201     -19.1948      2.00000
    202     -19.1948      2.00000
    203     -19.1947      2.00000
    204     -19.1947      2.00000
    205     -19.1946      2.00000
    206     -19.1945      2.00000
    207     -19.1945      2.00000
    208     -19.1945      2.00000
    209     -19.1944      2.00000
    210     -19.1943      2.00000
    211     -19.1941      2.00000
    212     -19.1941      2.00000
    213     -19.1940      2.00000
    214     -19.1939      2.00000
    215     -19.1938      2.00000
    216     -19.1938      2.00000
    217     -19.1937      2.00000
    218     -19.1937      2.00000
    219     -19.1935      2.00000
    220     -19.1934      2.00000
    221     -19.1933      2.00000
    222     -19.1932      2.00000
    223     -19.1932      2.00000
    224     -19.1931      2.00000
    225     -19.1931      2.00000
    226     -19.1931      2.00000
    227     -19.1930      2.00000
    228     -19.1930      2.00000
    229     -19.1930      2.00000
    230     -19.1929      2.00000
    231     -19.1929      2.00000
    232     -19.1929      2.00000
    233     -19.1929      2.00000
    234     -19.1928      2.00000
    235     -19.1928      2.00000
    236     -19.1928      2.00000
    237     -19.1928      2.00000
    238     -19.1927      2.00000
    239     -19.1927      2.00000
    240     -19.1927      2.00000
    241     -19.1926      2.00000
    242     -19.1926      2.00000
    243     -19.1925      2.00000
    244     -19.1924      2.00000
    245     -19.1924      2.00000
    246     -19.1923      2.00000
    247     -19.1923      2.00000
    248     -19.1922      2.00000
    249     -19.1920      2.00000
    250     -19.1919      2.00000
    251     -19.1919      2.00000
    252     -19.1918      2.00000
    253     -19.1918      2.00000
    254     -19.1918      2.00000
    255     -19.1917      2.00000
    256     -19.1916      2.00000
    257     -19.1916      2.00000
    258     -19.1916      2.00000
    259     -19.1915      2.00000
    260     -19.1915      2.00000
    261     -19.1914      2.00000
    262     -19.1914      2.00000
    263     -19.1914      2.00000
    264     -19.1913      2.00000
    265     -19.1913      2.00000
    266     -19.1912      2.00000
    267     -19.1912      2.00000
    268     -19.1912      2.00000
    269     -19.1912      2.00000
    270     -19.1911      2.00000
    271     -19.1911      2.00000
    272     -19.1910      2.00000
    273     -19.1910      2.00000
    274     -19.1909      2.00000
    275     -19.1909      2.00000
    276     -19.1909      2.00000
    277     -19.1909      2.00000
    278     -19.1908      2.00000
    279     -19.1908      2.00000
    280     -19.1908      2.00000
    281     -19.1907      2.00000
    282     -19.1906      2.00000
    283     -19.1906      2.00000
    284     -19.1906      2.00000
    285     -19.1905      2.00000
    286     -19.1905      2.00000
    287     -19.1905      2.00000
    288     -19.1904      2.00000
    289     -19.1904      2.00000
    290     -19.1904      2.00000
    291     -19.1904      2.00000
    292     -19.1903      2.00000
    293     -19.1902      2.00000
    294     -19.1902      2.00000
    295     -19.1902      2.00000
    296     -19.1902      2.00000
    297     -19.1901      2.00000
    298     -19.1901      2.00000
    299     -19.1900      2.00000
    300     -19.1900      2.00000
    301     -19.1898      2.00000
    302     -19.1897      2.00000
    303     -19.1896      2.00000
    304     -19.1895      2.00000
    305     -19.1895      2.00000
    306     -19.1895      2.00000
    307     -19.1894      2.00000
    308     -19.1894      2.00000
    309     -19.1893      2.00000
    310     -19.1892      2.00000
    311     -19.1891      2.00000
    312     -19.1891      2.00000
    313     -19.1891      2.00000
    314     -19.1891      2.00000
    315     -19.1890      2.00000
    316     -19.1884      2.00000
    317     -19.1884      2.00000
    318     -19.1882      2.00000
    319     -19.1875      2.00000
    320     -19.1874      2.00000
    321      -6.9649      2.00000
    322      -6.6257      2.00000
    323      -6.5478      2.00000
    324      -6.5472      2.00000
    325      -6.5472      2.00000
    326      -6.5465      2.00000
    327      -5.9670      2.00000
    328      -5.9662      2.00000
    329      -5.9662      2.00000
    330      -5.9654      2.00000
    331      -5.9169      2.00000
    332      -5.9162      2.00000
    333      -5.9162      2.00000
    334      -5.9156      2.00000
    335      -5.6687      2.00000
    336      -5.6680      2.00000
    337      -5.6679      2.00000
    338      -5.6672      2.00000
    339      -5.3172      2.00000
    340      -5.3166      2.00000
    341      -5.3166      2.00000
    342      -5.3160      2.00000
    343      -5.3031      2.00000
    344      -5.1439      2.00000
    345      -5.1430      2.00000
    346      -5.1430      2.00000
    347      -5.1422      2.00000
    348      -5.0359      2.00000
    349      -5.0351      2.00000
    350      -5.0351      2.00000
    351      -5.0343      2.00000
    352      -4.6707      2.00000
    353      -4.6691      2.00000
    354      -4.6691      2.00000
    355      -4.6690      2.00000
    356      -4.6690      2.00000
    357      -4.6690      2.00000
    358      -4.6689      2.00000
    359      -4.6673      2.00000
    360      -4.5779      2.00000
    361      -4.5771      2.00000
    362      -4.5771      2.00000
    363      -4.5763      2.00000
    364      -4.4962      2.00000
    365      -4.4947      2.00000
    366      -4.4946      2.00000
    367      -4.4946      2.00000
    368      -4.4946      2.00000
    369      -4.4946      2.00000
    370      -4.4945      2.00000
    371      -4.4929      2.00000
    372      -4.3641      2.00000
    373      -3.9062      2.00000
    374      -3.9054      2.00000
    375      -3.9054      2.00000
    376      -3.9047      2.00000
    377      -3.8946      2.00000
    378      -3.8940      2.00000
    379      -3.8940      2.00000
    380      -3.8933      2.00000
    381      -3.5414      2.00000
    382      -3.5414      2.00000
    383      -3.4971      2.00000
    384      -3.4971      2.00000
    385      -2.7026      2.00000
    386      -2.7026      2.00000
    387      -2.6272      2.00000
    388      -2.6272      2.00000
    389      -2.2764      2.00000
    390      -2.2759      2.00000
    391      -2.2759      2.00000
    392      -2.2754      2.00000
    393      -2.1794      2.00000
    394      -2.1788      2.00000
    395      -2.1787      2.00000
    396      -2.1781      2.00000
    397      -1.8900      2.00000
    398      -1.8887      2.00000
    399      -1.8886      2.00000
    400      -1.8885      2.00000
    401      -1.8885      2.00000
    402      -1.8884      2.00000
    403      -1.8883      2.00000
    404      -1.8871      2.00000
    405      -1.7932      2.00000
    406      -1.7544      2.00000
    407      -1.7536      2.00000
    408      -1.7536      2.00000
    409      -1.7528      2.00000
    410      -1.5194      2.00000
    411      -1.5187      2.00000
    412      -1.5186      2.00000
    413      -1.5179      2.00000
    414      -1.3722      2.00000
    415      -1.3710      2.00000
    416      -1.3710      2.00000
    417      -1.3709      2.00000
    418      -1.3709      2.00000
    419      -1.3708      2.00000
    420      -1.3708      2.00000
    421      -1.3696      2.00000
    422      -1.1902      2.00000
    423      -1.1895      2.00000
    424      -1.1895      2.00000
    425      -1.1887      2.00000
    426      -0.8866      2.00000
    427      -0.8858      2.00000
    428      -0.8858      2.00000
    429      -0.8850      2.00000
    430      -0.4290      2.00000
    431      -0.0577      2.00000
    432      -0.0569      2.00000
    433      -0.0569      2.00000
    434      -0.0561      2.00000
    435      -0.0300      2.00000
    436      -0.0293      2.00000
    437      -0.0293      2.00000
    438      -0.0285      2.00000
    439       0.6823      2.00000
    440       0.6829      2.00000
    441       0.6829      2.00000
    442       0.6835      2.00000
    443       1.0026      2.00000
    444       1.0028      2.00000
    445       1.0029      2.00000
    446       1.0032      2.00000
    447       1.0066      2.00000
    448       1.0068      2.00000
    449       1.0070      2.00000
    450       1.0072      2.00000
    451       1.0454      2.00000
    452       1.0455      2.00000
    453       1.0458      2.00000
    454       1.0460      2.00000
    455       1.5119      2.00000
    456       1.5119      2.00000
    457       1.5590      2.00000
    458       1.5590      2.00000
    459       1.5952      2.00000
    460       1.5955      2.00000
    461       1.5955      2.00000
    462       1.5958      2.00000
    463       1.5959      2.00000
    464       1.5961      2.00000
    465       1.5962      2.00000
    466       1.5965      2.00000
    467       1.7131      2.00000
    468       1.7133      2.00000
    469       1.7135      2.00000
    470       1.7138      2.00000
    471       1.7138      2.00000
    472       1.7141      2.00000
    473       1.7142      2.00000
    474       1.7145      2.00000
    475       1.7995      2.00000
    476       1.8001      2.00000
    477       1.8001      2.00000
    478       1.8007      2.00000
    479       1.9522      2.00000
    480       1.9522      2.00000
    481       1.9652      2.00000
    482       1.9653      2.00000
    483       2.0014      2.00000
    484       2.0021      2.00000
    485       2.0021      2.00000
    486       2.0027      2.00000
    487       2.0385      2.00000
    488       2.0385      2.00000
    489       2.0391      2.00000
    490       2.0391      2.00000
    491       2.0750      2.00000
    492       2.0753      2.00000
    493       2.0756      2.00000
    494       2.0759      2.00000
    495       2.3327      2.00000
    496       2.3327      2.00000
    497       2.4804      2.00000
    498       2.4808      2.00000
    499       2.4811      2.00000
    500       2.4811      2.00000
    501       2.4813      2.00000
    502       2.4813      2.00000
    503       2.4815      2.00000
    504       2.4819      2.00000
    505       2.5346      2.00000
    506       2.5661      2.00000
    507       2.5667      2.00000
    508       2.5667      2.00000
    509       2.5674      2.00000
    510       2.6636      2.00000
    511       2.6636      2.00000
    512       2.6680      2.00000
    513       2.6683      2.00000
    514       2.6683      2.00000
    515       2.6687      2.00000
    516       2.7778      2.00000
    517       2.7779      2.00000
    518       2.7784      2.00000
    519       2.7784      2.00000
    520       2.9440      2.00000
    521       2.9446      2.00000
    522       2.9449      2.00000
    523       2.9450      2.00000
    524       2.9450      2.00000
    525       2.9451      2.00000
    526       2.9454      2.00000
    527       2.9460      2.00000
    528       3.0069      2.00000
    529       3.0074      2.00000
    530       3.0075      2.00000
    531       3.0080      2.00000
    532       3.1098      2.00000
    533       3.1105      2.00000
    534       3.1105      2.00000
    535       3.1113      2.00000
    536       3.2381      2.00000
    537       3.2385      2.00000
    538       3.2385      2.00000
    539       3.2388      2.00000
    540       3.4317      2.00000
    541       3.4321      2.00000
    542       3.4323      2.00000
    543       3.4327      2.00000
    544       3.6840      2.00000
    545       3.6847      2.00000
    546       3.6847      2.00000
    547       3.6852      2.00000
    548       3.6963      2.00000
    549       3.6970      2.00000
    550       3.6970      2.00000
    551       3.6978      2.00000
    552       3.7496      2.00000
    553       3.7502      2.00000
    554       3.7503      2.00000
    555       3.7503      2.00000
    556       3.7505      2.00000
    557       3.7506      2.00000
    558       3.7507      2.00000
    559       3.7513      2.00000
    560       3.7792      2.00000
    561       3.7796      2.00000
    562       3.7800      2.00000
    563       3.7804      2.00000
    564       3.8032      2.00000
    565       3.8036      2.00000
    566       3.8037      2.00000
    567       3.8040      2.00000
    568       3.9049      2.00000
    569       3.9050      2.00000
    570       4.0441      2.00000
    571       4.6754      2.00000
    572       4.6754      2.00000
    573       4.7145      2.00000
    574       4.7148      2.00000
    575       4.7148      2.00000
    576       4.7150      2.00000
    577       5.7217      0.00000
    578       5.8500      0.00000
    579       6.3489      0.00000
    580       6.3490      0.00000
    581       6.3827      0.00000
    582       6.3829      0.00000
    583       6.3829      0.00000
    584       6.3832      0.00000
    585       6.4296      0.00000
    586       6.5386      0.00000
    587       6.5390      0.00000
    588       6.5390      0.00000
    589       6.5393      0.00000
    590       6.6425      0.00000
    591       6.6425      0.00000
    592       6.7639      0.00000
    593       6.8301      0.00000
    594       6.8305      0.00000
    595       6.8309      0.00000
    596       6.8310      0.00000
    597       6.8310      0.00000
    598       6.8310      0.00000
    599       6.8314      0.00000
    600       6.8318      0.00000
    601       6.8438      0.00000
    602       6.8441      0.00000
    603       6.8441      0.00000
    604       6.8444      0.00000
    605       6.8573      0.00000
    606       6.8574      0.00000
    607       6.8580      0.00000
    608       6.8580      0.00000
    609       6.9958      0.00000
    610       6.9960      0.00000
    611       6.9960      0.00000
    612       6.9961      0.00000
    613       7.1382      0.00000
    614       7.1386      0.00000
    615       7.1386      0.00000
    616       7.1390      0.00000
    617       7.1866      0.00000
    618       7.2115      0.00000
    619       7.2117      0.00000
    620       7.2117      0.00000
    621       7.2119      0.00000
    622       7.3330      0.00000
    623       7.3660      0.00000
    624       7.3663      0.00000
    625       7.3669      0.00000
    626       7.3669      0.00000
    627       7.3670      0.00000
    628       7.3670      0.00000
    629       7.3677      0.00000
    630       7.3679      0.00000
    631       7.5118      0.00000
    632       7.5328      0.00000
    633       7.5331      0.00000
    634       7.5334      0.00000
    635       7.5337      0.00000
    636       7.7103      0.00000
    637       7.7103      0.00000
    638       8.0045      0.00000
    639       8.0046      0.00000
    640       8.0050      0.00000
    641       8.0051      0.00000
    642       8.0150      0.00000
    643       8.0150      0.00000
    644       8.1262      0.00000
    645       8.1264      0.00000
    646       8.1269      0.00000
    647       8.1269      0.00000
    648       8.1270      0.00000
    649       8.1270      0.00000
    650       8.1274      0.00000
    651       8.1277      0.00000
    652       8.2143      0.00000
    653       8.2143      0.00000
    654       8.2439      0.00000
    655       8.2443      0.00000
    656       8.2443      0.00000
    657       8.2448      0.00000
    658       8.2786      0.00000
    659       8.2786      0.00000
    660       8.2792      0.00000
    661       8.2792      0.00000
    662       8.3552      0.00000
    663       8.3554      0.00000
    664       8.3556      0.00000
    665       8.3558      0.00000
    666       8.3671      0.00000
    667       8.3677      0.00000
    668       8.3677      0.00000
    669       8.3683      0.00000
    670       8.3934      0.00000
    671       8.3937      0.00000
    672       8.3940      0.00000
    673       8.3943      0.00000
    674       8.5094      0.00000
    675       8.5604      0.00000
    676       8.5609      0.00000
    677       8.5609      0.00000
    678       8.5614      0.00000
    679       8.6525      0.00000
    680       8.6531      0.00000
    681       8.6531      0.00000
    682       8.6537      0.00000
    683       8.8672      0.00000
    684       8.8680      0.00000
    685       8.8680      0.00000
    686       8.8688      0.00000
    687       8.9375      0.00000
    688       8.9380      0.00000
    689       8.9381      0.00000
    690       8.9385      0.00000
    691       8.9429      0.00000
    692       8.9431      0.00000
    693       8.9438      0.00000
    694       8.9438      0.00000
    695       8.9439      0.00000
    696       8.9440      0.00000
    697       8.9448      0.00000
    698       8.9450      0.00000
    699       9.1175      0.00000
    700       9.1186      0.00000
    701       9.1220      0.00000
    702       9.1248      0.00000
    703       9.2661      0.00000
    704       9.2721      0.00000

 k-point     7 :      -0.3333    0.3333    0.0000
  band No.  band energies     occupation 
      1     -19.2231      2.00000
      2     -19.2230      2.00000
      3     -19.2230      2.00000
      4     -19.2228      2.00000
      5     -19.2224      2.00000
      6     -19.2223      2.00000
      7     -19.2222      2.00000
      8     -19.2219      2.00000
      9     -19.2219      2.00000
     10     -19.2217      2.00000
     11     -19.2216      2.00000
     12     -19.2207      2.00000
     13     -19.2206      2.00000
     14     -19.2206      2.00000
     15     -19.2204      2.00000
     16     -19.2203      2.00000
     17     -19.2202      2.00000
     18     -19.2201      2.00000
     19     -19.2200      2.00000
     20     -19.2200      2.00000
     21     -19.2199      2.00000
     22     -19.2197      2.00000
     23     -19.2197      2.00000
     24     -19.2194      2.00000
     25     -19.2193      2.00000
     26     -19.2192      2.00000
     27     -19.2191      2.00000
     28     -19.2190      2.00000
     29     -19.2189      2.00000
     30     -19.2189      2.00000
     31     -19.2189      2.00000
     32     -19.2189      2.00000
     33     -19.2188      2.00000
     34     -19.2188      2.00000
     35     -19.2188      2.00000
     36     -19.2188      2.00000
     37     -19.2187      2.00000
     38     -19.2187      2.00000
     39     -19.2186      2.00000
     40     -19.2186      2.00000
     41     -19.2185      2.00000
     42     -19.2184      2.00000
     43     -19.2184      2.00000
     44     -19.2184      2.00000
     45     -19.2184      2.00000
     46     -19.2183      2.00000
     47     -19.2183      2.00000
     48     -19.2182      2.00000
     49     -19.2182      2.00000
     50     -19.2181      2.00000
     51     -19.2181      2.00000
     52     -19.2181      2.00000
     53     -19.2180      2.00000
     54     -19.2180      2.00000
     55     -19.2180      2.00000
     56     -19.2179      2.00000
     57     -19.2179      2.00000
     58     -19.2179      2.00000
     59     -19.2178      2.00000
     60     -19.2178      2.00000
     61     -19.2178      2.00000
     62     -19.2177      2.00000
     63     -19.2175      2.00000
     64     -19.2175      2.00000
     65     -19.2171      2.00000
     66     -19.2166      2.00000
     67     -19.2165      2.00000
     68     -19.2164      2.00000
     69     -19.2163      2.00000
     70     -19.2162      2.00000
     71     -19.2155      2.00000
     72     -19.2154      2.00000
     73     -19.2152      2.00000
     74     -19.2151      2.00000
     75     -19.2150      2.00000
     76     -19.2147      2.00000
     77     -19.2145      2.00000
     78     -19.2145      2.00000
     79     -19.2144      2.00000
     80     -19.2143      2.00000
     81     -19.2141      2.00000
     82     -19.2141      2.00000
     83     -19.2140      2.00000
     84     -19.2139      2.00000
     85     -19.2139      2.00000
     86     -19.2138      2.00000
     87     -19.2138      2.00000
     88     -19.2138      2.00000
     89     -19.2137      2.00000
     90     -19.2137      2.00000
     91     -19.2136      2.00000
     92     -19.2135      2.00000
     93     -19.2135      2.00000
     94     -19.2135      2.00000
     95     -19.2134      2.00000
     96     -19.2133      2.00000
     97     -19.2133      2.00000
     98     -19.2133      2.00000
     99     -19.2132      2.00000
    100     -19.2132      2.00000
    101     -19.2132      2.00000
    102     -19.2131      2.00000
    103     -19.2131      2.00000
    104     -19.2131      2.00000
    105     -19.2130      2.00000
    106     -19.2130      2.00000
    107     -19.2130      2.00000
    108     -19.2130      2.00000
    109     -19.2130      2.00000
    110     -19.2129      2.00000
    111     -19.2129      2.00000
    112     -19.2129      2.00000
    113     -19.2128      2.00000
    114     -19.2128      2.00000
    115     -19.2128      2.00000
    116     -19.2128      2.00000
    117     -19.2127      2.00000
    118     -19.2127      2.00000
    119     -19.2126      2.00000
    120     -19.2126      2.00000
    121     -19.2125      2.00000
    122     -19.2125      2.00000
    123     -19.2124      2.00000
    124     -19.2123      2.00000
    125     -19.2123      2.00000
    126     -19.2123      2.00000
    127     -19.2122      2.00000
    128     -19.2122      2.00000
    129     -19.2122      2.00000
    130     -19.2122      2.00000
    131     -19.2121      2.00000
    132     -19.2121      2.00000
    133     -19.2120      2.00000
    134     -19.2120      2.00000
    135     -19.2120      2.00000
    136     -19.2119      2.00000
    137     -19.2119      2.00000
    138     -19.2118      2.00000
    139     -19.2117      2.00000
    140     -19.2116      2.00000
    141     -19.2115      2.00000
    142     -19.2115      2.00000
    143     -19.2114      2.00000
    144     -19.2113      2.00000
    145     -19.2113      2.00000
    146     -19.2112      2.00000
    147     -19.2110      2.00000
    148     -19.2109      2.00000
    149     -19.2108      2.00000
    150     -19.2108      2.00000
    151     -19.2107      2.00000
    152     -19.2106      2.00000
    153     -19.2106      2.00000
    154     -19.2105      2.00000
    155     -19.2102      2.00000
    156     -19.2101      2.00000
    157     -19.2100      2.00000
    158     -19.2100      2.00000
    159     -19.2098      2.00000
    160     -19.2098      2.00000
    161     -19.2096      2.00000
    162     -19.2095      2.00000
    163     -19.2094      2.00000
    164     -19.2094      2.00000
    165     -19.2093      2.00000
    166     -19.2092      2.00000
    167     -19.2092      2.00000
    168     -19.2092      2.00000
    169     -19.2091      2.00000
    170     -19.2091      2.00000
    171     -19.2091      2.00000
    172     -19.2091      2.00000
    173     -19.2090      2.00000
    174     -19.2090      2.00000
    175     -19.2089      2.00000
    176     -19.2089      2.00000
    177     -19.2088      2.00000
    178     -19.2088      2.00000
    179     -19.2086      2.00000
    180     -19.2085      2.00000
    181     -19.2084      2.00000
    182     -19.2081      2.00000
    183     -19.2080      2.00000
    184     -19.2080      2.00000
    185     -19.2079      2.00000
    186     -19.2079      2.00000
    187     -19.2078      2.00000
    188     -19.2076      2.00000
    189     -19.2076      2.00000
    190     -19.2074      2.00000
    191     -19.2072      2.00000
    192     -19.2069      2.00000
    193     -19.1965      2.00000
    194     -19.1965      2.00000
    195     -19.1957      2.00000
    196     -19.1956      2.00000
    197     -19.1955      2.00000
    198     -19.1954      2.00000
    199     -19.1953      2.00000
    200     -19.1953      2.00000
    201     -19.1952      2.00000
    202     -19.1949      2.00000
    203     -19.1948      2.00000
    204     -19.1947      2.00000
    205     -19.1946      2.00000
    206     -19.1946      2.00000
    207     -19.1945      2.00000
    208     -19.1944      2.00000
    209     -19.1943      2.00000
    210     -19.1940      2.00000
    211     -19.1939      2.00000
    212     -19.1939      2.00000
    213     -19.1938      2.00000
    214     -19.1937      2.00000
    215     -19.1937      2.00000
    216     -19.1936      2.00000
    217     -19.1936      2.00000
    218     -19.1935      2.00000
    219     -19.1935      2.00000
    220     -19.1935      2.00000
    221     -19.1934      2.00000
    222     -19.1934      2.00000
    223     -19.1934      2.00000
    224     -19.1933      2.00000
    225     -19.1933      2.00000
    226     -19.1932      2.00000
    227     -19.1932      2.00000
    228     -19.1931      2.00000
    229     -19.1931      2.00000
    230     -19.1930      2.00000
    231     -19.1930      2.00000
    232     -19.1929      2.00000
    233     -19.1929      2.00000
    234     -19.1928      2.00000
    235     -19.1927      2.00000
    236     -19.1927      2.00000
    237     -19.1926      2.00000
    238     -19.1926      2.00000
    239     -19.1925      2.00000
    240     -19.1925      2.00000
    241     -19.1925      2.00000
    242     -19.1925      2.00000
    243     -19.1924      2.00000
    244     -19.1924      2.00000
    245     -19.1923      2.00000
    246     -19.1923      2.00000
    247     -19.1922      2.00000
    248     -19.1922      2.00000
    249     -19.1921      2.00000
    250     -19.1921      2.00000
    251     -19.1920      2.00000
    252     -19.1920      2.00000
    253     -19.1919      2.00000
    254     -19.1919      2.00000
    255     -19.1919      2.00000
    256     -19.1918      2.00000
    257     -19.1918      2.00000
    258     -19.1917      2.00000
    259     -19.1916      2.00000
    260     -19.1915      2.00000
    261     -19.1914      2.00000
    262     -19.1913      2.00000
    263     -19.1913      2.00000
    264     -19.1912      2.00000
    265     -19.1912      2.00000
    266     -19.1911      2.00000
    267     -19.1911      2.00000
    268     -19.1911      2.00000
    269     -19.1910      2.00000
    270     -19.1910      2.00000
    271     -19.1910      2.00000
    272     -19.1910      2.00000
    273     -19.1909      2.00000
    274     -19.1909      2.00000
    275     -19.1909      2.00000
    276     -19.1909      2.00000
    277     -19.1908      2.00000
    278     -19.1908      2.00000
    279     -19.1908      2.00000
    280     -19.1907      2.00000
    281     -19.1907      2.00000
    282     -19.1907      2.00000
    283     -19.1907      2.00000
    284     -19.1907      2.00000
    285     -19.1906      2.00000
    286     -19.1906      2.00000
    287     -19.1905      2.00000
    288     -19.1905      2.00000
    289     -19.1904      2.00000
    290     -19.1904      2.00000
    291     -19.1904      2.00000
    292     -19.1903      2.00000
    293     -19.1903      2.00000
    294     -19.1902      2.00000
    295     -19.1902      2.00000
    296     -19.1902      2.00000
    297     -19.1901      2.00000
    298     -19.1901      2.00000
    299     -19.1900      2.00000
    300     -19.1900      2.00000
    301     -19.1900      2.00000
    302     -19.1899      2.00000
    303     -19.1898      2.00000
    304     -19.1898      2.00000
    305     -19.1896      2.00000
    306     -19.1896      2.00000
    307     -19.1895      2.00000
    308     -19.1893      2.00000
    309     -19.1893      2.00000
    310     -19.1890      2.00000
    311     -19.1889      2.00000
    312     -19.1889      2.00000
    313     -19.1889      2.00000
    314     -19.1888      2.00000
    315     -19.1888      2.00000
    316     -19.1886      2.00000
    317     -19.1886      2.00000
    318     -19.1885      2.00000
    319     -19.1875      2.00000
    320     -19.1874      2.00000
    321      -6.8523      2.00000
    322      -6.7680      2.00000
    323      -6.7674      2.00000
    324      -6.5172      2.00000
    325      -6.5168      2.00000
    326      -6.1940      2.00000
    327      -6.1126      2.00000
    328      -6.1120      2.00000
    329      -6.1119      2.00000
    330      -6.1113      2.00000
    331      -5.8693      2.00000
    332      -5.8685      2.00000
    333      -5.5859      2.00000
    334      -5.5850      2.00000
    335      -5.5849      2.00000
    336      -5.5844      2.00000
    337      -5.5421      2.00000
    338      -5.5416      2.00000
    339      -5.4766      2.00000
    340      -5.4760      2.00000
    341      -5.4760      2.00000
    342      -5.4753      2.00000
    343      -5.3538      2.00000
    344      -5.3530      2.00000
    345      -5.2156      2.00000
    346      -5.2151      2.00000
    347      -5.0349      2.00000
    348      -5.0340      2.00000
    349      -5.0339      2.00000
    350      -5.0334      2.00000
    351      -4.9627      2.00000
    352      -4.9620      2.00000
    353      -4.8138      2.00000
    354      -4.8129      2.00000
    355      -4.7515      2.00000
    356      -4.7507      2.00000
    357      -4.7170      2.00000
    358      -4.7163      2.00000
    359      -4.6088      2.00000
    360      -4.6082      2.00000
    361      -4.6082      2.00000
    362      -4.6073      2.00000
    363      -4.4147      2.00000
    364      -4.4136      2.00000
    365      -4.4136      2.00000
    366      -4.4129      2.00000
    367      -4.3016      2.00000
    368      -4.3009      2.00000
    369      -4.1305      2.00000
    370      -4.1301      2.00000
    371      -4.1237      2.00000
    372      -4.1219      2.00000
    373      -4.1212      2.00000
    374      -4.1211      2.00000
    375      -4.1202      2.00000
    376      -4.1188      2.00000
    377      -4.1181      2.00000
    378      -3.7915      2.00000
    379      -3.7907      2.00000
    380      -3.7906      2.00000
    381      -3.7899      2.00000
    382      -3.7040      2.00000
    383      -3.7032      2.00000
    384      -3.5799      2.00000
    385      -2.6293      2.00000
    386      -2.4327      2.00000
    387      -2.4322      2.00000
    388      -2.3756      2.00000
    389      -2.3754      2.00000
    390      -2.3753      2.00000
    391      -2.3748      2.00000
    392      -2.0633      2.00000
    393      -2.0627      2.00000
    394      -2.0439      2.00000
    395      -2.0429      2.00000
    396      -2.0427      2.00000
    397      -2.0425      2.00000
    398      -2.0223      2.00000
    399      -1.9573      2.00000
    400      -1.9565      2.00000
    401      -1.9296      2.00000
    402      -1.9288      2.00000
    403      -1.8645      2.00000
    404      -1.8637      2.00000
    405      -1.8297      2.00000
    406      -1.8292      2.00000
    407      -1.7281      2.00000
    408      -1.7269      2.00000
    409      -1.7268      2.00000
    410      -1.7267      2.00000
    411      -1.7037      2.00000
    412      -1.7034      2.00000
    413      -1.7031      2.00000
    414      -1.7024      2.00000
    415      -1.4921      2.00000
    416      -1.4918      2.00000
    417      -1.4917      2.00000
    418      -1.4905      2.00000
    419      -1.2170      2.00000
    420      -1.2163      2.00000
    421      -1.1756      2.00000
    422      -1.1750      2.00000
    423      -0.9989      2.00000
    424      -0.9983      2.00000
    425      -0.8626      2.00000
    426      -0.8618      2.00000
    427      -0.5881      2.00000
    428      -0.5873      2.00000
    429      -0.4893      2.00000
    430      -0.4892      2.00000
    431      -0.4889      2.00000
    432      -0.4882      2.00000
    433      -0.3139      2.00000
    434      -0.3128      2.00000
    435      -0.3128      2.00000
    436      -0.3123      2.00000
    437       0.2643      2.00000
    438       0.2649      2.00000
    439       0.7359      2.00000
    440       0.7361      2.00000
    441       0.7364      2.00000
    442       0.7371      2.00000
    443       0.8140      2.00000
    444       0.9577      2.00000
    445       0.9583      2.00000
    446       0.9586      2.00000
    447       0.9588      2.00000
    448       0.9590      2.00000
    449       0.9761      2.00000
    450       0.9764      2.00000
    451       1.1448      2.00000
    452       1.1452      2.00000
    453       1.2444      2.00000
    454       1.2446      2.00000
    455       1.2450      2.00000
    456       1.2453      2.00000
    457       1.3425      2.00000
    458       1.4035      2.00000
    459       1.4039      2.00000
    460       1.4281      2.00000
    461       1.4283      2.00000
    462       1.4285      2.00000
    463       1.4287      2.00000
    464       1.4969      2.00000
    465       1.4972      2.00000
    466       1.4975      2.00000
    467       1.4978      2.00000
    468       1.5859      2.00000
    469       1.5862      2.00000
    470       1.9367      2.00000
    471       1.9372      2.00000
    472       1.9910      2.00000
    473       1.9912      2.00000
    474       2.0113      2.00000
    475       2.0115      2.00000
    476       2.0298      2.00000
    477       2.0301      2.00000
    478       2.1434      2.00000
    479       2.1435      2.00000
    480       2.1436      2.00000
    481       2.1440      2.00000
    482       2.1876      2.00000
    483       2.1882      2.00000
    484       2.2068      2.00000
    485       2.2074      2.00000
    486       2.2274      2.00000
    487       2.2275      2.00000
    488       2.2278      2.00000
    489       2.2281      2.00000
    490       2.2713      2.00000
    491       2.2716      2.00000
    492       2.3334      2.00000
    493       2.3341      2.00000
    494       2.3758      2.00000
    495       2.3762      2.00000
    496       2.3871      2.00000
    497       2.3878      2.00000
    498       2.4123      2.00000
    499       2.4348      2.00000
    500       2.4350      2.00000
    501       2.4353      2.00000
    502       2.4357      2.00000
    503       2.4953      2.00000
    504       2.4961      2.00000
    505       2.4962      2.00000
    506       2.4965      2.00000
    507       2.5166      2.00000
    508       2.5172      2.00000
    509       2.5926      2.00000
    510       2.5932      2.00000
    511       2.5934      2.00000
    512       2.5938      2.00000
    513       2.6746      2.00000
    514       2.6750      2.00000
    515       2.6752      2.00000
    516       2.6754      2.00000
    517       2.6852      2.00000
    518       2.6853      2.00000
    519       2.7080      2.00000
    520       2.8028      2.00000
    521       2.8034      2.00000
    522       2.8088      2.00000
    523       2.8095      2.00000
    524       2.9059      2.00000
    525       2.9068      2.00000
    526       2.9071      2.00000
    527       2.9072      2.00000
    528       2.9528      2.00000
    529       3.0158      2.00000
    530       3.0165      2.00000
    531       3.1077      2.00000
    532       3.1081      2.00000
    533       3.1083      2.00000
    534       3.1086      2.00000
    535       3.1559      2.00000
    536       3.1578      2.00000
    537       3.1582      2.00000
    538       3.1588      2.00000
    539       3.1590      2.00000
    540       3.1593      2.00000
    541       3.1595      2.00000
    542       3.3337      2.00000
    543       3.3346      2.00000
    544       3.3938      2.00000
    545       3.3942      2.00000
    546       3.4138      2.00000
    547       3.4142      2.00000
    548       3.4589      2.00000
    549       3.4596      2.00000
    550       3.4713      2.00000
    551       3.4715      2.00000
    552       3.4987      2.00000
    553       3.5001      2.00000
    554       3.5002      2.00000
    555       3.5003      2.00000
    556       3.6451      2.00000
    557       3.6461      2.00000
    558       3.7355      2.00000
    559       3.7364      2.00000
    560       3.7365      2.00000
    561       3.7369      2.00000
    562       4.0465      2.00000
    563       4.0473      2.00000
    564       4.0568      2.00000
    565       4.0572      2.00000
    566       4.0575      2.00000
    567       4.0581      2.00000
    568       4.2409      2.00000
    569       4.3034      2.00000
    570       4.3044      2.00000
    571       4.3326      2.00000
    572       4.3335      2.00000
    573       4.4235      2.00000
    574       4.4244      2.00000
    575       4.4905      2.00000
    576       4.9704      2.00000
    577       6.0214      0.00000
    578       6.0218      0.00000
    579       6.1073      0.00000
    580       6.3300      0.00000
    581       6.3306      0.00000
    582       6.4850      0.00000
    583       6.4857      0.00000
    584       6.6371      0.00000
    585       6.6373      0.00000
    586       6.6451      0.00000
    587       6.6455      0.00000
    588       6.6458      0.00000
    589       6.6464      0.00000
    590       6.6567      0.00000
    591       6.6570      0.00000
    592       6.6641      0.00000
    593       6.8689      0.00000
    594       6.8696      0.00000
    595       6.9487      0.00000
    596       6.9491      0.00000
    597       6.9982      0.00000
    598       6.9987      0.00000
    599       7.0438      0.00000
    600       7.0444      0.00000
    601       7.0604      0.00000
    602       7.0608      0.00000
    603       7.1793      0.00000
    604       7.1800      0.00000
    605       7.1802      0.00000
    606       7.1805      0.00000
    607       7.1827      0.00000
    608       7.1829      0.00000
    609       7.2072      0.00000
    610       7.2077      0.00000
    611       7.2078      0.00000
    612       7.2083      0.00000
    613       7.2313      0.00000
    614       7.2315      0.00000
    615       7.2317      0.00000
    616       7.2320      0.00000
    617       7.2321      0.00000
    618       7.2998      0.00000
    619       7.3001      0.00000
    620       7.3665      0.00000
    621       7.3672      0.00000
    622       7.3673      0.00000
    623       7.3675      0.00000
    624       7.3845      0.00000
    625       7.3852      0.00000
    626       7.5162      0.00000
    627       7.5168      0.00000
    628       7.5172      0.00000
    629       7.5174      0.00000
    630       7.5414      0.00000
    631       7.5479      0.00000
    632       7.5483      0.00000
    633       7.5484      0.00000
    634       7.5490      0.00000
    635       7.6241      0.00000
    636       7.6243      0.00000
    637       7.6825      0.00000
    638       7.7017      0.00000
    639       7.7021      0.00000
    640       7.7288      0.00000
    641       7.7296      0.00000
    642       7.7820      0.00000
    643       7.7823      0.00000
    644       7.7826      0.00000
    645       7.7831      0.00000
    646       7.8826      0.00000
    647       7.8986      0.00000
    648       7.8992      0.00000
    649       7.9486      0.00000
    650       7.9488      0.00000
    651       8.0220      0.00000
    652       8.1605      0.00000
    653       8.1607      0.00000
    654       8.1607      0.00000
    655       8.1615      0.00000
    656       8.2460      0.00000
    657       8.2463      0.00000
    658       8.2517      0.00000
    659       8.2527      0.00000
    660       8.2527      0.00000
    661       8.2530      0.00000
    662       8.3599      0.00000
    663       8.3602      0.00000
    664       8.4034      0.00000
    665       8.4041      0.00000
    666       8.4264      0.00000
    667       8.4270      0.00000
    668       8.4276      0.00000
    669       8.4278      0.00000
    670       8.4313      0.00000
    671       8.4319      0.00000
    672       8.4321      0.00000
    673       8.4326      0.00000
    674       8.4689      0.00000
    675       8.4693      0.00000
    676       8.6107      0.00000
    677       8.6112      0.00000
    678       8.6124      0.00000
    679       8.6168      0.00000
    680       8.6171      0.00000
    681       8.6173      0.00000
    682       8.6176      0.00000
    683       8.6190      0.00000
    684       8.6197      0.00000
    685       8.6736      0.00000
    686       8.6739      0.00000
    687       8.7508      0.00000
    688       8.7515      0.00000
    689       8.7776      0.00000
    690       8.7783      0.00000
    691       8.7995      0.00000
    692       8.7997      0.00000
    693       8.8001      0.00000
    694       8.8005      0.00000
    695       8.8131      0.00000
    696       8.8136      0.00000
    697       8.8140      0.00000
    698       8.8142      0.00000
    699       8.8286      0.00000
    700       8.8290      0.00000
    701       8.8737      0.00000
    702       8.9970      0.00000
    703       8.9979      0.00000
    704       9.1194      0.00000

 k-point     8 :       0.0000   -0.3333    0.3333
  band No.  band energies     occupation 
      1     -19.2231      2.00000
      2     -19.2230      2.00000
      3     -19.2230      2.00000
      4     -19.2228      2.00000
      5     -19.2225      2.00000
      6     -19.2223      2.00000
      7     -19.2222      2.00000
      8     -19.2219      2.00000
      9     -19.2219      2.00000
     10     -19.2216      2.00000
     11     -19.2216      2.00000
     12     -19.2207      2.00000
     13     -19.2206      2.00000
     14     -19.2205      2.00000
     15     -19.2203      2.00000
     16     -19.2203      2.00000
     17     -19.2202      2.00000
     18     -19.2201      2.00000
     19     -19.2201      2.00000
     20     -19.2200      2.00000
     21     -19.2199      2.00000
     22     -19.2198      2.00000
     23     -19.2197      2.00000
     24     -19.2194      2.00000
     25     -19.2194      2.00000
     26     -19.2192      2.00000
     27     -19.2191      2.00000
     28     -19.2190      2.00000
     29     -19.2189      2.00000
     30     -19.2189      2.00000
     31     -19.2189      2.00000
     32     -19.2188      2.00000
     33     -19.2188      2.00000
     34     -19.2188      2.00000
     35     -19.2187      2.00000
     36     -19.2187      2.00000
     37     -19.2187      2.00000
     38     -19.2187      2.00000
     39     -19.2187      2.00000
     40     -19.2186      2.00000
     41     -19.2186      2.00000
     42     -19.2185      2.00000
     43     -19.2184      2.00000
     44     -19.2184      2.00000
     45     -19.2184      2.00000
     46     -19.2183      2.00000
     47     -19.2183      2.00000
     48     -19.2182      2.00000
     49     -19.2181      2.00000
     50     -19.2181      2.00000
     51     -19.2180      2.00000
     52     -19.2180      2.00000
     53     -19.2180      2.00000
     54     -19.2180      2.00000
     55     -19.2180      2.00000
     56     -19.2180      2.00000
     57     -19.2179      2.00000
     58     -19.2179      2.00000
     59     -19.2179      2.00000
     60     -19.2179      2.00000
     61     -19.2178      2.00000
     62     -19.2177      2.00000
     63     -19.2176      2.00000
     64     -19.2174      2.00000
     65     -19.2170      2.00000
     66     -19.2167      2.00000
     67     -19.2165      2.00000
     68     -19.2164      2.00000
     69     -19.2162      2.00000
     70     -19.2162      2.00000
     71     -19.2155      2.00000
     72     -19.2153      2.00000
     73     -19.2152      2.00000
     74     -19.2151      2.00000
     75     -19.2150      2.00000
     76     -19.2146      2.00000
     77     -19.2146      2.00000
     78     -19.2145      2.00000
     79     -19.2144      2.00000
     80     -19.2143      2.00000
     81     -19.2142      2.00000
     82     -19.2140      2.00000
     83     -19.2140      2.00000
     84     -19.2139      2.00000
     85     -19.2139      2.00000
     86     -19.2138      2.00000
     87     -19.2138      2.00000
     88     -19.2138      2.00000
     89     -19.2137      2.00000
     90     -19.2136      2.00000
     91     -19.2136      2.00000
     92     -19.2136      2.00000
     93     -19.2136      2.00000
     94     -19.2135      2.00000
     95     -19.2134      2.00000
     96     -19.2134      2.00000
     97     -19.2133      2.00000
     98     -19.2132      2.00000
     99     -19.2132      2.00000
    100     -19.2132      2.00000
    101     -19.2132      2.00000
    102     -19.2131      2.00000
    103     -19.2131      2.00000
    104     -19.2131      2.00000
    105     -19.2131      2.00000
    106     -19.2130      2.00000
    107     -19.2130      2.00000
    108     -19.2130      2.00000
    109     -19.2129      2.00000
    110     -19.2129      2.00000
    111     -19.2129      2.00000
    112     -19.2129      2.00000
    113     -19.2129      2.00000
    114     -19.2128      2.00000
    115     -19.2128      2.00000
    116     -19.2128      2.00000
    117     -19.2127      2.00000
    118     -19.2127      2.00000
    119     -19.2126      2.00000
    120     -19.2126      2.00000
    121     -19.2125      2.00000
    122     -19.2124      2.00000
    123     -19.2124      2.00000
    124     -19.2124      2.00000
    125     -19.2123      2.00000
    126     -19.2123      2.00000
    127     -19.2122      2.00000
    128     -19.2122      2.00000
    129     -19.2122      2.00000
    130     -19.2121      2.00000
    131     -19.2121      2.00000
    132     -19.2121      2.00000
    133     -19.2120      2.00000
    134     -19.2120      2.00000
    135     -19.2119      2.00000
    136     -19.2119      2.00000
    137     -19.2118      2.00000
    138     -19.2118      2.00000
    139     -19.2117      2.00000
    140     -19.2116      2.00000
    141     -19.2115      2.00000
    142     -19.2115      2.00000
    143     -19.2113      2.00000
    144     -19.2112      2.00000
    145     -19.2112      2.00000
    146     -19.2112      2.00000
    147     -19.2111      2.00000
    148     -19.2108      2.00000
    149     -19.2108      2.00000
    150     -19.2108      2.00000
    151     -19.2108      2.00000
    152     -19.2107      2.00000
    153     -19.2107      2.00000
    154     -19.2104      2.00000
    155     -19.2102      2.00000
    156     -19.2102      2.00000
    157     -19.2100      2.00000
    158     -19.2100      2.00000
    159     -19.2100      2.00000
    160     -19.2098      2.00000
    161     -19.2095      2.00000
    162     -19.2095      2.00000
    163     -19.2095      2.00000
    164     -19.2095      2.00000
    165     -19.2093      2.00000
    166     -19.2093      2.00000
    167     -19.2092      2.00000
    168     -19.2092      2.00000
    169     -19.2091      2.00000
    170     -19.2091      2.00000
    171     -19.2091      2.00000
    172     -19.2090      2.00000
    173     -19.2090      2.00000
    174     -19.2089      2.00000
    175     -19.2089      2.00000
    176     -19.2088      2.00000
    177     -19.2087      2.00000
    178     -19.2087      2.00000
    179     -19.2085      2.00000
    180     -19.2085      2.00000
    181     -19.2084      2.00000
    182     -19.2081      2.00000
    183     -19.2081      2.00000
    184     -19.2080      2.00000
    185     -19.2080      2.00000
    186     -19.2079      2.00000
    187     -19.2077      2.00000
    188     -19.2076      2.00000
    189     -19.2076      2.00000
    190     -19.2074      2.00000
    191     -19.2073      2.00000
    192     -19.2071      2.00000
    193     -19.1965      2.00000
    194     -19.1965      2.00000
    195     -19.1956      2.00000
    196     -19.1955      2.00000
    197     -19.1955      2.00000
    198     -19.1955      2.00000
    199     -19.1954      2.00000
    200     -19.1953      2.00000
    201     -19.1952      2.00000
    202     -19.1949      2.00000
    203     -19.1949      2.00000
    204     -19.1947      2.00000
    205     -19.1946      2.00000
    206     -19.1945      2.00000
    207     -19.1944      2.00000
    208     -19.1943      2.00000
    209     -19.1942      2.00000
    210     -19.1940      2.00000
    211     -19.1940      2.00000
    212     -19.1939      2.00000
    213     -19.1938      2.00000
    214     -19.1938      2.00000
    215     -19.1937      2.00000
    216     -19.1936      2.00000
    217     -19.1936      2.00000
    218     -19.1936      2.00000
    219     -19.1935      2.00000
    220     -19.1935      2.00000
    221     -19.1935      2.00000
    222     -19.1934      2.00000
    223     -19.1933      2.00000
    224     -19.1933      2.00000
    225     -19.1932      2.00000
    226     -19.1932      2.00000
    227     -19.1932      2.00000
    228     -19.1931      2.00000
    229     -19.1931      2.00000
    230     -19.1930      2.00000
    231     -19.1930      2.00000
    232     -19.1929      2.00000
    233     -19.1929      2.00000
    234     -19.1929      2.00000
    235     -19.1928      2.00000
    236     -19.1927      2.00000
    237     -19.1927      2.00000
    238     -19.1926      2.00000
    239     -19.1926      2.00000
    240     -19.1925      2.00000
    241     -19.1925      2.00000
    242     -19.1924      2.00000
    243     -19.1924      2.00000
    244     -19.1924      2.00000
    245     -19.1923      2.00000
    246     -19.1922      2.00000
    247     -19.1921      2.00000
    248     -19.1921      2.00000
    249     -19.1921      2.00000
    250     -19.1921      2.00000
    251     -19.1920      2.00000
    252     -19.1920      2.00000
    253     -19.1920      2.00000
    254     -19.1919      2.00000
    255     -19.1919      2.00000
    256     -19.1918      2.00000
    257     -19.1917      2.00000
    258     -19.1917      2.00000
    259     -19.1916      2.00000
    260     -19.1915      2.00000
    261     -19.1915      2.00000
    262     -19.1913      2.00000
    263     -19.1913      2.00000
    264     -19.1913      2.00000
    265     -19.1912      2.00000
    266     -19.1911      2.00000
    267     -19.1911      2.00000
    268     -19.1911      2.00000
    269     -19.1910      2.00000
    270     -19.1910      2.00000
    271     -19.1910      2.00000
    272     -19.1909      2.00000
    273     -19.1909      2.00000
    274     -19.1909      2.00000
    275     -19.1909      2.00000
    276     -19.1908      2.00000
    277     -19.1908      2.00000
    278     -19.1908      2.00000
    279     -19.1908      2.00000
    280     -19.1907      2.00000
    281     -19.1907      2.00000
    282     -19.1907      2.00000
    283     -19.1907      2.00000
    284     -19.1906      2.00000
    285     -19.1906      2.00000
    286     -19.1906      2.00000
    287     -19.1905      2.00000
    288     -19.1905      2.00000
    289     -19.1905      2.00000
    290     -19.1904      2.00000
    291     -19.1904      2.00000
    292     -19.1903      2.00000
    293     -19.1903      2.00000
    294     -19.1902      2.00000
    295     -19.1902      2.00000
    296     -19.1902      2.00000
    297     -19.1902      2.00000
    298     -19.1901      2.00000
    299     -19.1900      2.00000
    300     -19.1900      2.00000
    301     -19.1899      2.00000
    302     -19.1898      2.00000
    303     -19.1898      2.00000
    304     -19.1897      2.00000
    305     -19.1896      2.00000
    306     -19.1896      2.00000
    307     -19.1895      2.00000
    308     -19.1894      2.00000
    309     -19.1894      2.00000
    310     -19.1891      2.00000
    311     -19.1891      2.00000
    312     -19.1889      2.00000
    313     -19.1887      2.00000
    314     -19.1887      2.00000
    315     -19.1886      2.00000
    316     -19.1886      2.00000
    317     -19.1886      2.00000
    318     -19.1885      2.00000
    319     -19.1875      2.00000
    320     -19.1874      2.00000
    321      -6.8523      2.00000
    322      -6.7677      2.00000
    323      -6.7677      2.00000
    324      -6.5173      2.00000
    325      -6.5166      2.00000
    326      -6.1940      2.00000
    327      -6.1128      2.00000
    328      -6.1120      2.00000
    329      -6.1118      2.00000
    330      -6.1111      2.00000
    331      -5.8689      2.00000
    332      -5.8689      2.00000
    333      -5.5857      2.00000
    334      -5.5851      2.00000
    335      -5.5849      2.00000
    336      -5.5844      2.00000
    337      -5.5420      2.00000
    338      -5.5419      2.00000
    339      -5.4769      2.00000
    340      -5.4761      2.00000
    341      -5.4759      2.00000
    342      -5.4751      2.00000
    343      -5.3535      2.00000
    344      -5.3535      2.00000
    345      -5.2158      2.00000
    346      -5.2150      2.00000
    347      -5.0346      2.00000
    348      -5.0340      2.00000
    349      -5.0339      2.00000
    350      -5.0333      2.00000
    351      -4.9626      2.00000
    352      -4.9619      2.00000
    353      -4.8133      2.00000
    354      -4.8133      2.00000
    355      -4.7512      2.00000
    356      -4.7507      2.00000
    357      -4.7168      2.00000
    358      -4.7168      2.00000
    359      -4.6090      2.00000
    360      -4.6082      2.00000
    361      -4.6082      2.00000
    362      -4.6074      2.00000
    363      -4.4143      2.00000
    364      -4.4137      2.00000
    365      -4.4137      2.00000
    366      -4.4130      2.00000
    367      -4.3016      2.00000
    368      -4.3008      2.00000
    369      -4.1309      2.00000
    370      -4.1300      2.00000
    371      -4.1240      2.00000
    372      -4.1220      2.00000
    373      -4.1212      2.00000
    374      -4.1211      2.00000
    375      -4.1204      2.00000
    376      -4.1187      2.00000
    377      -4.1180      2.00000
    378      -3.7912      2.00000
    379      -3.7907      2.00000
    380      -3.7906      2.00000
    381      -3.7901      2.00000
    382      -3.7035      2.00000
    383      -3.7033      2.00000
    384      -3.5801      2.00000
    385      -2.6291      2.00000
    386      -2.4331      2.00000
    387      -2.4324      2.00000
    388      -2.3761      2.00000
    389      -2.3754      2.00000
    390      -2.3753      2.00000
    391      -2.3746      2.00000
    392      -2.0637      2.00000
    393      -2.0627      2.00000
    394      -2.0433      2.00000
    395      -2.0430      2.00000
    396      -2.0428      2.00000
    397      -2.0424      2.00000
    398      -2.0220      2.00000
    399      -1.9568      2.00000
    400      -1.9566      2.00000
    401      -1.9301      2.00000
    402      -1.9289      2.00000
    403      -1.8638      2.00000
    404      -1.8638      2.00000
    405      -1.8301      2.00000
    406      -1.8291      2.00000
    407      -1.7272      2.00000
    408      -1.7269      2.00000
    409      -1.7269      2.00000
    410      -1.7267      2.00000
    411      -1.7043      2.00000
    412      -1.7034      2.00000
    413      -1.7031      2.00000
    414      -1.7022      2.00000
    415      -1.4929      2.00000
    416      -1.4919      2.00000
    417      -1.4918      2.00000
    418      -1.4907      2.00000
    419      -1.2164      2.00000
    420      -1.2164      2.00000
    421      -1.1753      2.00000
    422      -1.1753      2.00000
    423      -0.9995      2.00000
    424      -0.9983      2.00000
    425      -0.8619      2.00000
    426      -0.8619      2.00000
    427      -0.5876      2.00000
    428      -0.5873      2.00000
    429      -0.4900      2.00000
    430      -0.4891      2.00000
    431      -0.4890      2.00000
    432      -0.4881      2.00000
    433      -0.3133      2.00000
    434      -0.3128      2.00000
    435      -0.3128      2.00000
    436      -0.3124      2.00000
    437       0.2647      2.00000
    438       0.2647      2.00000
    439       0.7355      2.00000
    440       0.7362      2.00000
    441       0.7363      2.00000
    442       0.7370      2.00000
    443       0.8140      2.00000
    444       0.9578      2.00000
    445       0.9583      2.00000
    446       0.9586      2.00000
    447       0.9587      2.00000
    448       0.9592      2.00000
    449       0.9760      2.00000
    450       0.9763      2.00000
    451       1.1452      2.00000
    452       1.1453      2.00000
    453       1.2445      2.00000
    454       1.2447      2.00000
    455       1.2450      2.00000
    456       1.2451      2.00000
    457       1.3427      2.00000
    458       1.4034      2.00000
    459       1.4040      2.00000
    460       1.4281      2.00000
    461       1.4284      2.00000
    462       1.4286      2.00000
    463       1.4289      2.00000
    464       1.4968      2.00000
    465       1.4970      2.00000
    466       1.4973      2.00000
    467       1.4975      2.00000
    468       1.5859      2.00000
    469       1.5862      2.00000
    470       1.9363      2.00000
    471       1.9369      2.00000
    472       1.9910      2.00000
    473       1.9911      2.00000
    474       2.0111      2.00000
    475       2.0113      2.00000
    476       2.0300      2.00000
    477       2.0301      2.00000
    478       2.1431      2.00000
    479       2.1435      2.00000
    480       2.1437      2.00000
    481       2.1441      2.00000
    482       2.1878      2.00000
    483       2.1883      2.00000
    484       2.2073      2.00000
    485       2.2073      2.00000
    486       2.2273      2.00000
    487       2.2275      2.00000
    488       2.2276      2.00000
    489       2.2278      2.00000
    490       2.2711      2.00000
    491       2.2717      2.00000
    492       2.3337      2.00000
    493       2.3342      2.00000
    494       2.3756      2.00000
    495       2.3762      2.00000
    496       2.3877      2.00000
    497       2.3878      2.00000
    498       2.4121      2.00000
    499       2.4347      2.00000
    500       2.4348      2.00000
    501       2.4355      2.00000
    502       2.4356      2.00000
    503       2.4956      2.00000
    504       2.4960      2.00000
    505       2.4962      2.00000
    506       2.4966      2.00000
    507       2.5167      2.00000
    508       2.5167      2.00000
    509       2.5928      2.00000
    510       2.5930      2.00000
    511       2.5935      2.00000
    512       2.5937      2.00000
    513       2.6745      2.00000
    514       2.6749      2.00000
    515       2.6752      2.00000
    516       2.6755      2.00000
    517       2.6850      2.00000
    518       2.6851      2.00000
    519       2.7079      2.00000
    520       2.8032      2.00000
    521       2.8032      2.00000
    522       2.8092      2.00000
    523       2.8097      2.00000
    524       2.9067      2.00000
    525       2.9069      2.00000
    526       2.9069      2.00000
    527       2.9071      2.00000
    528       2.9526      2.00000
    529       3.0163      2.00000
    530       3.0163      2.00000
    531       3.1078      2.00000
    532       3.1082      2.00000
    533       3.1083      2.00000
    534       3.1087      2.00000
    535       3.1565      2.00000
    536       3.1581      2.00000
    537       3.1581      2.00000
    538       3.1587      2.00000
    539       3.1591      2.00000
    540       3.1594      2.00000
    541       3.1597      2.00000
    542       3.3339      2.00000
    543       3.3339      2.00000
    544       3.3941      2.00000
    545       3.3942      2.00000
    546       3.4134      2.00000
    547       3.4141      2.00000
    548       3.4589      2.00000
    549       3.4590      2.00000
    550       3.4714      2.00000
    551       3.4715      2.00000
    552       3.4997      2.00000
    553       3.5000      2.00000
    554       3.5001      2.00000
    555       3.5005      2.00000
    556       3.6453      2.00000
    557       3.6453      2.00000
    558       3.7359      2.00000
    559       3.7363      2.00000
    560       3.7364      2.00000
    561       3.7369      2.00000
    562       4.0465      2.00000
    563       4.0466      2.00000
    564       4.0564      2.00000
    565       4.0571      2.00000
    566       4.0575      2.00000
    567       4.0583      2.00000
    568       4.2409      2.00000
    569       4.3036      2.00000
    570       4.3036      2.00000
    571       4.3334      2.00000
    572       4.3335      2.00000
    573       4.4242      2.00000
    574       4.4242      2.00000
    575       4.4901      2.00000
    576       4.9700      2.00000
    577       6.0215      0.00000
    578       6.0215      0.00000
    579       6.1070      0.00000
    580       6.3299      0.00000
    581       6.3306      0.00000
    582       6.4854      0.00000
    583       6.4855      0.00000
    584       6.6371      0.00000
    585       6.6371      0.00000
    586       6.6452      0.00000
    587       6.6455      0.00000
    588       6.6459      0.00000
    589       6.6462      0.00000
    590       6.6568      0.00000
    591       6.6568      0.00000
    592       6.6638      0.00000
    593       6.8693      0.00000
    594       6.8697      0.00000
    595       6.9488      0.00000
    596       6.9489      0.00000
    597       6.9983      0.00000
    598       6.9983      0.00000
    599       7.0439      0.00000
    600       7.0439      0.00000
    601       7.0607      0.00000
    602       7.0607      0.00000
    603       7.1794      0.00000
    604       7.1798      0.00000
    605       7.1801      0.00000
    606       7.1805      0.00000
    607       7.1828      0.00000
    608       7.1831      0.00000
    609       7.2073      0.00000
    610       7.2077      0.00000
    611       7.2079      0.00000
    612       7.2083      0.00000
    613       7.2312      0.00000
    614       7.2315      0.00000
    615       7.2318      0.00000
    616       7.2320      0.00000
    617       7.2322      0.00000
    618       7.2998      0.00000
    619       7.2998      0.00000
    620       7.3669      0.00000
    621       7.3670      0.00000
    622       7.3674      0.00000
    623       7.3675      0.00000
    624       7.3843      0.00000
    625       7.3852      0.00000
    626       7.5167      0.00000
    627       7.5169      0.00000
    628       7.5173      0.00000
    629       7.5176      0.00000
    630       7.5412      0.00000
    631       7.5477      0.00000
    632       7.5482      0.00000
    633       7.5485      0.00000
    634       7.5488      0.00000
    635       7.6241      0.00000
    636       7.6244      0.00000
    637       7.6827      0.00000
    638       7.7018      0.00000
    639       7.7018      0.00000
    640       7.7292      0.00000
    641       7.7293      0.00000
    642       7.7820      0.00000
    643       7.7822      0.00000
    644       7.7827      0.00000
    645       7.7830      0.00000
    646       7.8829      0.00000
    647       7.8983      0.00000
    648       7.8993      0.00000
    649       7.9487      0.00000
    650       7.9489      0.00000
    651       8.0218      0.00000
    652       8.1600      0.00000
    653       8.1606      0.00000
    654       8.1606      0.00000
    655       8.1612      0.00000
    656       8.2460      0.00000
    657       8.2464      0.00000
    658       8.2523      0.00000
    659       8.2526      0.00000
    660       8.2528      0.00000
    661       8.2531      0.00000
    662       8.3602      0.00000
    663       8.3603      0.00000
    664       8.4030      0.00000
    665       8.4040      0.00000
    666       8.4270      0.00000
    667       8.4274      0.00000
    668       8.4276      0.00000
    669       8.4281      0.00000
    670       8.4317      0.00000
    671       8.4318      0.00000
    672       8.4324      0.00000
    673       8.4325      0.00000
    674       8.4687      0.00000
    675       8.4687      0.00000
    676       8.6108      0.00000
    677       8.6110      0.00000
    678       8.6128      0.00000
    679       8.6169      0.00000
    680       8.6172      0.00000
    681       8.6173      0.00000
    682       8.6177      0.00000
    683       8.6188      0.00000
    684       8.6196      0.00000
    685       8.6736      0.00000
    686       8.6738      0.00000
    687       8.7514      0.00000
    688       8.7514      0.00000
    689       8.7782      0.00000
    690       8.7782      0.00000
    691       8.7996      0.00000
    692       8.7999      0.00000
    693       8.8002      0.00000
    694       8.8004      0.00000
    695       8.8131      0.00000
    696       8.8136      0.00000
    697       8.8140      0.00000
    698       8.8145      0.00000
    699       8.8284      0.00000
    700       8.8285      0.00000
    701       8.8735      0.00000
    702       8.9972      0.00000
    703       9.0023      0.00000
    704       9.1443      0.00000

 k-point     9 :       0.3333    0.3333   -0.3333
  band No.  band energies     occupation 
      1     -19.2232      2.00000
      2     -19.2230      2.00000
      3     -19.2230      2.00000
      4     -19.2228      2.00000
      5     -19.2224      2.00000
      6     -19.2222      2.00000
      7     -19.2221      2.00000
      8     -19.2219      2.00000
      9     -19.2218      2.00000
     10     -19.2217      2.00000
     11     -19.2217      2.00000
     12     -19.2208      2.00000
     13     -19.2208      2.00000
     14     -19.2206      2.00000
     15     -19.2203      2.00000
     16     -19.2202      2.00000
     17     -19.2202      2.00000
     18     -19.2200      2.00000
     19     -19.2200      2.00000
     20     -19.2200      2.00000
     21     -19.2198      2.00000
     22     -19.2197      2.00000
     23     -19.2197      2.00000
     24     -19.2194      2.00000
     25     -19.2193      2.00000
     26     -19.2192      2.00000
     27     -19.2190      2.00000
     28     -19.2190      2.00000
     29     -19.2189      2.00000
     30     -19.2189      2.00000
     31     -19.2189      2.00000
     32     -19.2189      2.00000
     33     -19.2188      2.00000
     34     -19.2188      2.00000
     35     -19.2188      2.00000
     36     -19.2187      2.00000
     37     -19.2187      2.00000
     38     -19.2187      2.00000
     39     -19.2186      2.00000
     40     -19.2186      2.00000
     41     -19.2186      2.00000
     42     -19.2185      2.00000
     43     -19.2184      2.00000
     44     -19.2184      2.00000
     45     -19.2184      2.00000
     46     -19.2183      2.00000
     47     -19.2183      2.00000
     48     -19.2182      2.00000
     49     -19.2181      2.00000
     50     -19.2181      2.00000
     51     -19.2181      2.00000
     52     -19.2181      2.00000
     53     -19.2180      2.00000
     54     -19.2180      2.00000
     55     -19.2180      2.00000
     56     -19.2179      2.00000
     57     -19.2179      2.00000
     58     -19.2179      2.00000
     59     -19.2178      2.00000
     60     -19.2178      2.00000
     61     -19.2177      2.00000
     62     -19.2177      2.00000
     63     -19.2175      2.00000
     64     -19.2175      2.00000
     65     -19.2171      2.00000
     66     -19.2166      2.00000
     67     -19.2164      2.00000
     68     -19.2164      2.00000
     69     -19.2163      2.00000
     70     -19.2161      2.00000
     71     -19.2155      2.00000
     72     -19.2154      2.00000
     73     -19.2152      2.00000
     74     -19.2151      2.00000
     75     -19.2151      2.00000
     76     -19.2146      2.00000
     77     -19.2145      2.00000
     78     -19.2144      2.00000
     79     -19.2144      2.00000
     80     -19.2143      2.00000
     81     -19.2142      2.00000
     82     -19.2141      2.00000
     83     -19.2140      2.00000
     84     -19.2139      2.00000
     85     -19.2139      2.00000
     86     -19.2139      2.00000
     87     -19.2138      2.00000
     88     -19.2137      2.00000
     89     -19.2137      2.00000
     90     -19.2137      2.00000
     91     -19.2136      2.00000
     92     -19.2136      2.00000
     93     -19.2135      2.00000
     94     -19.2135      2.00000
     95     -19.2135      2.00000
     96     -19.2134      2.00000
     97     -19.2133      2.00000
     98     -19.2133      2.00000
     99     -19.2132      2.00000
    100     -19.2132      2.00000
    101     -19.2132      2.00000
    102     -19.2131      2.00000
    103     -19.2131      2.00000
    104     -19.2131      2.00000
    105     -19.2130      2.00000
    106     -19.2130      2.00000
    107     -19.2130      2.00000
    108     -19.2130      2.00000
    109     -19.2129      2.00000
    110     -19.2129      2.00000
    111     -19.2129      2.00000
    112     -19.2129      2.00000
    113     -19.2129      2.00000
    114     -19.2128      2.00000
    115     -19.2128      2.00000
    116     -19.2128      2.00000
    117     -19.2127      2.00000
    118     -19.2127      2.00000
    119     -19.2126      2.00000
    120     -19.2126      2.00000
    121     -19.2125      2.00000
    122     -19.2125      2.00000
    123     -19.2124      2.00000
    124     -19.2124      2.00000
    125     -19.2123      2.00000
    126     -19.2123      2.00000
    127     -19.2123      2.00000
    128     -19.2122      2.00000
    129     -19.2122      2.00000
    130     -19.2122      2.00000
    131     -19.2121      2.00000
    132     -19.2121      2.00000
    133     -19.2121      2.00000
    134     -19.2120      2.00000
    135     -19.2120      2.00000
    136     -19.2119      2.00000
    137     -19.2118      2.00000
    138     -19.2118      2.00000
    139     -19.2117      2.00000
    140     -19.2116      2.00000
    141     -19.2115      2.00000
    142     -19.2115      2.00000
    143     -19.2114      2.00000
    144     -19.2113      2.00000
    145     -19.2111      2.00000
    146     -19.2111      2.00000
    147     -19.2110      2.00000
    148     -19.2108      2.00000
    149     -19.2108      2.00000
    150     -19.2107      2.00000
    151     -19.2107      2.00000
    152     -19.2106      2.00000
    153     -19.2106      2.00000
    154     -19.2105      2.00000
    155     -19.2102      2.00000
    156     -19.2101      2.00000
    157     -19.2100      2.00000
    158     -19.2100      2.00000
    159     -19.2100      2.00000
    160     -19.2098      2.00000
    161     -19.2096      2.00000
    162     -19.2095      2.00000
    163     -19.2095      2.00000
    164     -19.2094      2.00000
    165     -19.2093      2.00000
    166     -19.2092      2.00000
    167     -19.2092      2.00000
    168     -19.2092      2.00000
    169     -19.2092      2.00000
    170     -19.2091      2.00000
    171     -19.2091      2.00000
    172     -19.2091      2.00000
    173     -19.2090      2.00000
    174     -19.2090      2.00000
    175     -19.2089      2.00000
    176     -19.2088      2.00000
    177     -19.2088      2.00000
    178     -19.2088      2.00000
    179     -19.2086      2.00000
    180     -19.2084      2.00000
    181     -19.2083      2.00000
    182     -19.2081      2.00000
    183     -19.2080      2.00000
    184     -19.2080      2.00000
    185     -19.2079      2.00000
    186     -19.2079      2.00000
    187     -19.2078      2.00000
    188     -19.2076      2.00000
    189     -19.2076      2.00000
    190     -19.2074      2.00000
    191     -19.2073      2.00000
    192     -19.2070      2.00000
    193     -19.1965      2.00000
    194     -19.1965      2.00000
    195     -19.1956      2.00000
    196     -19.1955      2.00000
    197     -19.1955      2.00000
    198     -19.1954      2.00000
    199     -19.1953      2.00000
    200     -19.1952      2.00000
    201     -19.1952      2.00000
    202     -19.1951      2.00000
    203     -19.1951      2.00000
    204     -19.1948      2.00000
    205     -19.1947      2.00000
    206     -19.1945      2.00000
    207     -19.1944      2.00000
    208     -19.1942      2.00000
    209     -19.1941      2.00000
    210     -19.1940      2.00000
    211     -19.1939      2.00000
    212     -19.1938      2.00000
    213     -19.1938      2.00000
    214     -19.1938      2.00000
    215     -19.1937      2.00000
    216     -19.1937      2.00000
    217     -19.1936      2.00000
    218     -19.1936      2.00000
    219     -19.1935      2.00000
    220     -19.1935      2.00000
    221     -19.1935      2.00000
    222     -19.1934      2.00000
    223     -19.1934      2.00000
    224     -19.1933      2.00000
    225     -19.1933      2.00000
    226     -19.1932      2.00000
    227     -19.1932      2.00000
    228     -19.1931      2.00000
    229     -19.1930      2.00000
    230     -19.1930      2.00000
    231     -19.1929      2.00000
    232     -19.1929      2.00000
    233     -19.1929      2.00000
    234     -19.1928      2.00000
    235     -19.1928      2.00000
    236     -19.1927      2.00000
    237     -19.1927      2.00000
    238     -19.1926      2.00000
    239     -19.1926      2.00000
    240     -19.1926      2.00000
    241     -19.1925      2.00000
    242     -19.1925      2.00000
    243     -19.1925      2.00000
    244     -19.1924      2.00000
    245     -19.1923      2.00000
    246     -19.1923      2.00000
    247     -19.1922      2.00000
    248     -19.1922      2.00000
    249     -19.1921      2.00000
    250     -19.1920      2.00000
    251     -19.1920      2.00000
    252     -19.1919      2.00000
    253     -19.1919      2.00000
    254     -19.1919      2.00000
    255     -19.1918      2.00000
    256     -19.1918      2.00000
    257     -19.1917      2.00000
    258     -19.1917      2.00000
    259     -19.1916      2.00000
    260     -19.1915      2.00000
    261     -19.1914      2.00000
    262     -19.1913      2.00000
    263     -19.1913      2.00000
    264     -19.1913      2.00000
    265     -19.1912      2.00000
    266     -19.1912      2.00000
    267     -19.1911      2.00000
    268     -19.1911      2.00000
    269     -19.1910      2.00000
    270     -19.1910      2.00000
    271     -19.1910      2.00000
    272     -19.1909      2.00000
    273     -19.1909      2.00000
    274     -19.1909      2.00000
    275     -19.1909      2.00000
    276     -19.1909      2.00000
    277     -19.1908      2.00000
    278     -19.1908      2.00000
    279     -19.1908      2.00000
    280     -19.1908      2.00000
    281     -19.1907      2.00000
    282     -19.1907      2.00000
    283     -19.1907      2.00000
    284     -19.1906      2.00000
    285     -19.1906      2.00000
    286     -19.1905      2.00000
    287     -19.1905      2.00000
    288     -19.1904      2.00000
    289     -19.1904      2.00000
    290     -19.1904      2.00000
    291     -19.1904      2.00000
    292     -19.1903      2.00000
    293     -19.1903      2.00000
    294     -19.1903      2.00000
    295     -19.1902      2.00000
    296     -19.1902      2.00000
    297     -19.1901      2.00000
    298     -19.1901      2.00000
    299     -19.1901      2.00000
    300     -19.1900      2.00000
    301     -19.1899      2.00000
    302     -19.1899      2.00000
    303     -19.1899      2.00000
    304     -19.1896      2.00000
    305     -19.1896      2.00000
    306     -19.1895      2.00000
    307     -19.1894      2.00000
    308     -19.1893      2.00000
    309     -19.1893      2.00000
    310     -19.1892      2.00000
    311     -19.1892      2.00000
    312     -19.1890      2.00000
    313     -19.1888      2.00000
    314     -19.1888      2.00000
    315     -19.1887      2.00000
    316     -19.1886      2.00000
    317     -19.1885      2.00000
    318     -19.1885      2.00000
    319     -19.1875      2.00000
    320     -19.1874      2.00000
    321      -6.8523      2.00000
    322      -6.7680      2.00000
    323      -6.7675      2.00000
    324      -6.5172      2.00000
    325      -6.5167      2.00000
    326      -6.1940      2.00000
    327      -6.1126      2.00000
    328      -6.1120      2.00000
    329      -6.1119      2.00000
    330      -6.1113      2.00000
    331      -5.8693      2.00000
    332      -5.8685      2.00000
    333      -5.5857      2.00000
    334      -5.5851      2.00000
    335      -5.5850      2.00000
    336      -5.5841      2.00000
    337      -5.5423      2.00000
    338      -5.5418      2.00000
    339      -5.4767      2.00000
    340      -5.4760      2.00000
    341      -5.4760      2.00000
    342      -5.4754      2.00000
    343      -5.3539      2.00000
    344      -5.3531      2.00000
    345      -5.2156      2.00000
    346      -5.2152      2.00000
    347      -5.0345      2.00000
    348      -5.0340      2.00000
    349      -5.0339      2.00000
    350      -5.0330      2.00000
    351      -4.9625      2.00000
    352      -4.9619      2.00000
    353      -4.8138      2.00000
    354      -4.8129      2.00000
    355      -4.7512      2.00000
    356      -4.7505      2.00000
    357      -4.7172      2.00000
    358      -4.7166      2.00000
    359      -4.6091      2.00000
    360      -4.6082      2.00000
    361      -4.6082      2.00000
    362      -4.6076      2.00000
    363      -4.4144      2.00000
    364      -4.4137      2.00000
    365      -4.4137      2.00000
    366      -4.4127      2.00000
    367      -4.3015      2.00000
    368      -4.3008      2.00000
    369      -4.1308      2.00000
    370      -4.1303      2.00000
    371      -4.1241      2.00000
    372      -4.1220      2.00000
    373      -4.1212      2.00000
    374      -4.1212      2.00000
    375      -4.1206      2.00000
    376      -4.1187      2.00000
    377      -4.1179      2.00000
    378      -3.7914      2.00000
    379      -3.7907      2.00000
    380      -3.7906      2.00000
    381      -3.7898      2.00000
    382      -3.7036      2.00000
    383      -3.7028      2.00000
    384      -3.5802      2.00000
    385      -2.6289      2.00000
    386      -2.4333      2.00000
    387      -2.4327      2.00000
    388      -2.3759      2.00000
    389      -2.3754      2.00000
    390      -2.3753      2.00000
    391      -2.3751      2.00000
    392      -2.0636      2.00000
    393      -2.0631      2.00000
    394      -2.0432      2.00000
    395      -2.0430      2.00000
    396      -2.0428      2.00000
    397      -2.0419      2.00000
    398      -2.0216      2.00000
    399      -1.9568      2.00000
    400      -1.9561      2.00000
    401      -1.9301      2.00000
    402      -1.9294      2.00000
    403      -1.8639      2.00000
    404      -1.8631      2.00000
    405      -1.8300      2.00000
    406      -1.8295      2.00000
    407      -1.7271      2.00000
    408      -1.7270      2.00000
    409      -1.7269      2.00000
    410      -1.7257      2.00000
    411      -1.7041      2.00000
    412      -1.7034      2.00000
    413      -1.7031      2.00000
    414      -1.7028      2.00000
    415      -1.4931      2.00000
    416      -1.4920      2.00000
    417      -1.4918      2.00000
    418      -1.4916      2.00000
    419      -1.2166      2.00000
    420      -1.2158      2.00000
    421      -1.1756      2.00000
    422      -1.1750      2.00000
    423      -0.9995      2.00000
    424      -0.9989      2.00000
    425      -0.8620      2.00000
    426      -0.8613      2.00000
    427      -0.5877      2.00000
    428      -0.5869      2.00000
    429      -0.4899      2.00000
    430      -0.4892      2.00000
    431      -0.4889      2.00000
    432      -0.4888      2.00000
    433      -0.3133      2.00000
    434      -0.3128      2.00000
    435      -0.3128      2.00000
    436      -0.3118      2.00000
    437       0.2645      2.00000
    438       0.2651      2.00000
    439       0.7354      2.00000
    440       0.7361      2.00000
    441       0.7364      2.00000
    442       0.7366      2.00000
    443       0.8141      2.00000
    444       0.9580      2.00000
    445       0.9582      2.00000
    446       0.9584      2.00000
    447       0.9587      2.00000
    448       0.9594      2.00000
    449       0.9758      2.00000
    450       0.9761      2.00000
    451       1.1452      2.00000
    452       1.1456      2.00000
    453       1.2444      2.00000
    454       1.2446      2.00000
    455       1.2450      2.00000
    456       1.2452      2.00000
    457       1.3429      2.00000
    458       1.4035      2.00000
    459       1.4040      2.00000
    460       1.4282      2.00000
    461       1.4284      2.00000
    462       1.4286      2.00000
    463       1.4289      2.00000
    464       1.4965      2.00000
    465       1.4967      2.00000
    466       1.4971      2.00000
    467       1.4974      2.00000
    468       1.5859      2.00000
    469       1.5862      2.00000
    470       1.9360      2.00000
    471       1.9365      2.00000
    472       1.9910      2.00000
    473       1.9912      2.00000
    474       2.0109      2.00000
    475       2.0111      2.00000
    476       2.0300      2.00000
    477       2.0303      2.00000
    478       2.1432      2.00000
    479       2.1436      2.00000
    480       2.1437      2.00000
    481       2.1438      2.00000
    482       2.1879      2.00000
    483       2.1884      2.00000
    484       2.2072      2.00000
    485       2.2078      2.00000
    486       2.2269      2.00000
    487       2.2272      2.00000
    488       2.2275      2.00000
    489       2.2277      2.00000
    490       2.2712      2.00000
    491       2.2716      2.00000
    492       2.3339      2.00000
    493       2.3345      2.00000
    494       2.3756      2.00000
    495       2.3759      2.00000
    496       2.3877      2.00000
    497       2.3884      2.00000
    498       2.4119      2.00000
    499       2.4346      2.00000
    500       2.4350      2.00000
    501       2.4353      2.00000
    502       2.4355      2.00000
    503       2.4957      2.00000
    504       2.4960      2.00000
    505       2.4962      2.00000
    506       2.4969      2.00000
    507       2.5162      2.00000
    508       2.5168      2.00000
    509       2.5928      2.00000
    510       2.5931      2.00000
    511       2.5934      2.00000
    512       2.5940      2.00000
    513       2.6746      2.00000
    514       2.6748      2.00000
    515       2.6751      2.00000
    516       2.6755      2.00000
    517       2.6848      2.00000
    518       2.6849      2.00000
    519       2.7078      2.00000
    520       2.8030      2.00000
    521       2.8036      2.00000
    522       2.8093      2.00000
    523       2.8101      2.00000
    524       2.9066      2.00000
    525       2.9067      2.00000
    526       2.9070      2.00000
    527       2.9080      2.00000
    528       2.9523      2.00000
    529       3.0162      2.00000
    530       3.0169      2.00000
    531       3.1080      2.00000
    532       3.1082      2.00000
    533       3.1084      2.00000
    534       3.1089      2.00000
    535       3.1567      2.00000
    536       3.1581      2.00000
    537       3.1583      2.00000
    538       3.1589      2.00000
    539       3.1591      2.00000
    540       3.1594      2.00000
    541       3.1600      2.00000
    542       3.3332      2.00000
    543       3.3341      2.00000
    544       3.3941      2.00000
    545       3.3946      2.00000
    546       3.4134      2.00000
    547       3.4138      2.00000
    548       3.4583      2.00000
    549       3.4590      2.00000
    550       3.4714      2.00000
    551       3.4716      2.00000
    552       3.4998      2.00000
    553       3.5000      2.00000
    554       3.5001      2.00000
    555       3.5015      2.00000
    556       3.6446      2.00000
    557       3.6455      2.00000
    558       3.7359      2.00000
    559       3.7362      2.00000
    560       3.7364      2.00000
    561       3.7372      2.00000
    562       4.0458      2.00000
    563       4.0467      2.00000
    564       4.0567      2.00000
    565       4.0572      2.00000
    566       4.0574      2.00000
    567       4.0578      2.00000
    568       4.2408      2.00000
    569       4.3027      2.00000
    570       4.3037      2.00000
    571       4.3333      2.00000
    572       4.3343      2.00000
    573       4.4240      2.00000
    574       4.4249      2.00000
    575       4.4897      2.00000
    576       4.9695      2.00000
    577       6.0211      0.00000
    578       6.0216      0.00000
    579       6.1067      0.00000
    580       6.3299      0.00000
    581       6.3305      0.00000
    582       6.4851      0.00000
    583       6.4858      0.00000
    584       6.6369      0.00000
    585       6.6372      0.00000
    586       6.6450      0.00000
    587       6.6456      0.00000
    588       6.6459      0.00000
    589       6.6464      0.00000
    590       6.6566      0.00000
    591       6.6568      0.00000
    592       6.6635      0.00000
    593       6.8695      0.00000
    594       6.8701      0.00000
    595       6.9487      0.00000
    596       6.9491      0.00000
    597       6.9978      0.00000
    598       6.9984      0.00000
    599       7.0434      0.00000
    600       7.0440      0.00000
    601       7.0606      0.00000
    602       7.0610      0.00000
    603       7.1793      0.00000
    604       7.1798      0.00000
    605       7.1800      0.00000
    606       7.1805      0.00000
    607       7.1830      0.00000
    608       7.1833      0.00000
    609       7.2072      0.00000
    610       7.2078      0.00000
    611       7.2078      0.00000
    612       7.2084      0.00000
    613       7.2314      0.00000
    614       7.2316      0.00000
    615       7.2318      0.00000
    616       7.2320      0.00000
    617       7.2322      0.00000
    618       7.2997      0.00000
    619       7.2999      0.00000
    620       7.3669      0.00000
    621       7.3671      0.00000
    622       7.3673      0.00000
    623       7.3679      0.00000
    624       7.3844      0.00000
    625       7.3850      0.00000
    626       7.5169      0.00000
    627       7.5170      0.00000
    628       7.5175      0.00000
    629       7.5180      0.00000
    630       7.5411      0.00000
    631       7.5476      0.00000
    632       7.5482      0.00000
    633       7.5483      0.00000
    634       7.5487      0.00000
    635       7.6242      0.00000
    636       7.6243      0.00000
    637       7.6830      0.00000
    638       7.7015      0.00000
    639       7.7020      0.00000
    640       7.7290      0.00000
    641       7.7297      0.00000
    642       7.7819      0.00000
    643       7.7823      0.00000
    644       7.7827      0.00000
    645       7.7830      0.00000
    646       7.8833      0.00000
    647       7.8984      0.00000
    648       7.8990      0.00000
    649       7.9487      0.00000
    650       7.9490      0.00000
    651       8.0215      0.00000
    652       8.1597      0.00000
    653       8.1604      0.00000
    654       8.1605      0.00000
    655       8.1607      0.00000
    656       8.2461      0.00000
    657       8.2463      0.00000
    658       8.2524      0.00000
    659       8.2526      0.00000
    660       8.2527      0.00000
    661       8.2538      0.00000
    662       8.3603      0.00000
    663       8.3606      0.00000
    664       8.4029      0.00000
    665       8.4036      0.00000
    666       8.4273      0.00000
    667       8.4275      0.00000
    668       8.4280      0.00000
    669       8.4283      0.00000
    670       8.4316      0.00000
    671       8.4320      0.00000
    672       8.4323      0.00000
    673       8.4334      0.00000
    674       8.4681      0.00000
    675       8.4685      0.00000
    676       8.6107      0.00000
    677       8.6112      0.00000
    678       8.6131      0.00000
    679       8.6170      0.00000
    680       8.6173      0.00000
    681       8.6176      0.00000
    682       8.6178      0.00000
    683       8.6186      0.00000
    684       8.6192      0.00000
    685       8.6735      0.00000
    686       8.6738      0.00000
    687       8.7512      0.00000
    688       8.7518      0.00000
    689       8.7782      0.00000
    690       8.7789      0.00000
    691       8.7995      0.00000
    692       8.7999      0.00000
    693       8.8003      0.00000
    694       8.8006      0.00000
    695       8.8134      0.00000
    696       8.8136      0.00000
    697       8.8141      0.00000
    698       8.8146      0.00000
    699       8.8278      0.00000
    700       8.8282      0.00000
    701       8.8732      0.00000
    702       8.9965      0.00000
    703       8.9990      0.00000
    704       9.1501      0.00000

 k-point    10 :       0.3333   -0.3333   -0.3333
  band No.  band energies     occupation 
      1     -19.2231      2.00000
      2     -19.2230      2.00000
      3     -19.2230      2.00000
      4     -19.2229      2.00000
      5     -19.2223      2.00000
      6     -19.2221      2.00000
      7     -19.2221      2.00000
      8     -19.2218      2.00000
      9     -19.2218      2.00000
     10     -19.2218      2.00000
     11     -19.2218      2.00000
     12     -19.2208      2.00000
     13     -19.2208      2.00000
     14     -19.2206      2.00000
     15     -19.2204      2.00000
     16     -19.2203      2.00000
     17     -19.2202      2.00000
     18     -19.2201      2.00000
     19     -19.2200      2.00000
     20     -19.2200      2.00000
     21     -19.2198      2.00000
     22     -19.2197      2.00000
     23     -19.2197      2.00000
     24     -19.2194      2.00000
     25     -19.2192      2.00000
     26     -19.2192      2.00000
     27     -19.2190      2.00000
     28     -19.2190      2.00000
     29     -19.2189      2.00000
     30     -19.2189      2.00000
     31     -19.2189      2.00000
     32     -19.2189      2.00000
     33     -19.2188      2.00000
     34     -19.2188      2.00000
     35     -19.2188      2.00000
     36     -19.2187      2.00000
     37     -19.2187      2.00000
     38     -19.2187      2.00000
     39     -19.2186      2.00000
     40     -19.2186      2.00000
     41     -19.2185      2.00000
     42     -19.2185      2.00000
     43     -19.2184      2.00000
     44     -19.2184      2.00000
     45     -19.2184      2.00000
     46     -19.2183      2.00000
     47     -19.2183      2.00000
     48     -19.2182      2.00000
     49     -19.2182      2.00000
     50     -19.2181      2.00000
     51     -19.2181      2.00000
     52     -19.2181      2.00000
     53     -19.2180      2.00000
     54     -19.2180      2.00000
     55     -19.2179      2.00000
     56     -19.2179      2.00000
     57     -19.2179      2.00000
     58     -19.2178      2.00000
     59     -19.2178      2.00000
     60     -19.2178      2.00000
     61     -19.2177      2.00000
     62     -19.2176      2.00000
     63     -19.2175      2.00000
     64     -19.2175      2.00000
     65     -19.2172      2.00000
     66     -19.2166      2.00000
     67     -19.2163      2.00000
     68     -19.2163      2.00000
     69     -19.2162      2.00000
     70     -19.2162      2.00000
     71     -19.2155      2.00000
     72     -19.2154      2.00000
     73     -19.2153      2.00000
     74     -19.2152      2.00000
     75     -19.2151      2.00000
     76     -19.2146      2.00000
     77     -19.2145      2.00000
     78     -19.2144      2.00000
     79     -19.2144      2.00000
     80     -19.2143      2.00000
     81     -19.2142      2.00000
     82     -19.2141      2.00000
     83     -19.2140      2.00000
     84     -19.2140      2.00000
     85     -19.2139      2.00000
     86     -19.2139      2.00000
     87     -19.2138      2.00000
     88     -19.2137      2.00000
     89     -19.2137      2.00000
     90     -19.2136      2.00000
     91     -19.2136      2.00000
     92     -19.2135      2.00000
     93     -19.2135      2.00000
     94     -19.2135      2.00000
     95     -19.2134      2.00000
     96     -19.2134      2.00000
     97     -19.2133      2.00000
     98     -19.2133      2.00000
     99     -19.2133      2.00000
    100     -19.2132      2.00000
    101     -19.2132      2.00000
    102     -19.2131      2.00000
    103     -19.2131      2.00000
    104     -19.2131      2.00000
    105     -19.2131      2.00000
    106     -19.2130      2.00000
    107     -19.2130      2.00000
    108     -19.2130      2.00000
    109     -19.2130      2.00000
    110     -19.2129      2.00000
    111     -19.2129      2.00000
    112     -19.2129      2.00000
    113     -19.2128      2.00000
    114     -19.2128      2.00000
    115     -19.2128      2.00000
    116     -19.2127      2.00000
    117     -19.2127      2.00000
    118     -19.2127      2.00000
    119     -19.2126      2.00000
    120     -19.2125      2.00000
    121     -19.2125      2.00000
    122     -19.2125      2.00000
    123     -19.2124      2.00000
    124     -19.2123      2.00000
    125     -19.2123      2.00000
    126     -19.2123      2.00000
    127     -19.2122      2.00000
    128     -19.2122      2.00000
    129     -19.2122      2.00000
    130     -19.2122      2.00000
    131     -19.2122      2.00000
    132     -19.2121      2.00000
    133     -19.2121      2.00000
    134     -19.2120      2.00000
    135     -19.2120      2.00000
    136     -19.2119      2.00000
    137     -19.2118      2.00000
    138     -19.2118      2.00000
    139     -19.2117      2.00000
    140     -19.2116      2.00000
    141     -19.2115      2.00000
    142     -19.2115      2.00000
    143     -19.2115      2.00000
    144     -19.2114      2.00000
    145     -19.2113      2.00000
    146     -19.2110      2.00000
    147     -19.2110      2.00000
    148     -19.2108      2.00000
    149     -19.2108      2.00000
    150     -19.2106      2.00000
    151     -19.2106      2.00000
    152     -19.2106      2.00000
    153     -19.2105      2.00000
    154     -19.2105      2.00000
    155     -19.2102      2.00000
    156     -19.2102      2.00000
    157     -19.2101      2.00000
    158     -19.2100      2.00000
    159     -19.2099      2.00000
    160     -19.2098      2.00000
    161     -19.2096      2.00000
    162     -19.2095      2.00000
    163     -19.2095      2.00000
    164     -19.2095      2.00000
    165     -19.2093      2.00000
    166     -19.2092      2.00000
    167     -19.2092      2.00000
    168     -19.2092      2.00000
    169     -19.2091      2.00000
    170     -19.2091      2.00000
    171     -19.2091      2.00000
    172     -19.2090      2.00000
    173     -19.2090      2.00000
    174     -19.2089      2.00000
    175     -19.2089      2.00000
    176     -19.2089      2.00000
    177     -19.2088      2.00000
    178     -19.2087      2.00000
    179     -19.2086      2.00000
    180     -19.2086      2.00000
    181     -19.2084      2.00000
    182     -19.2081      2.00000
    183     -19.2081      2.00000
    184     -19.2080      2.00000
    185     -19.2080      2.00000
    186     -19.2079      2.00000
    187     -19.2077      2.00000
    188     -19.2076      2.00000
    189     -19.2075      2.00000
    190     -19.2073      2.00000
    191     -19.2073      2.00000
    192     -19.2071      2.00000
    193     -19.1965      2.00000
    194     -19.1965      2.00000
    195     -19.1957      2.00000
    196     -19.1956      2.00000
    197     -19.1955      2.00000
    198     -19.1953      2.00000
    199     -19.1952      2.00000
    200     -19.1952      2.00000
    201     -19.1952      2.00000
    202     -19.1950      2.00000
    203     -19.1950      2.00000
    204     -19.1948      2.00000
    205     -19.1948      2.00000
    206     -19.1945      2.00000
    207     -19.1945      2.00000
    208     -19.1942      2.00000
    209     -19.1942      2.00000
    210     -19.1939      2.00000
    211     -19.1939      2.00000
    212     -19.1938      2.00000
    213     -19.1938      2.00000
    214     -19.1938      2.00000
    215     -19.1936      2.00000
    216     -19.1936      2.00000
    217     -19.1936      2.00000
    218     -19.1936      2.00000
    219     -19.1935      2.00000
    220     -19.1935      2.00000
    221     -19.1935      2.00000
    222     -19.1934      2.00000
    223     -19.1934      2.00000
    224     -19.1934      2.00000
    225     -19.1933      2.00000
    226     -19.1932      2.00000
    227     -19.1931      2.00000
    228     -19.1931      2.00000
    229     -19.1930      2.00000
    230     -19.1930      2.00000
    231     -19.1929      2.00000
    232     -19.1929      2.00000
    233     -19.1928      2.00000
    234     -19.1927      2.00000
    235     -19.1927      2.00000
    236     -19.1927      2.00000
    237     -19.1927      2.00000
    238     -19.1926      2.00000
    239     -19.1926      2.00000
    240     -19.1926      2.00000
    241     -19.1925      2.00000
    242     -19.1925      2.00000
    243     -19.1925      2.00000
    244     -19.1924      2.00000
    245     -19.1923      2.00000
    246     -19.1923      2.00000
    247     -19.1922      2.00000
    248     -19.1921      2.00000
    249     -19.1921      2.00000
    250     -19.1921      2.00000
    251     -19.1920      2.00000
    252     -19.1920      2.00000
    253     -19.1919      2.00000
    254     -19.1919      2.00000
    255     -19.1918      2.00000
    256     -19.1918      2.00000
    257     -19.1917      2.00000
    258     -19.1917      2.00000
    259     -19.1916      2.00000
    260     -19.1915      2.00000
    261     -19.1914      2.00000
    262     -19.1913      2.00000
    263     -19.1912      2.00000
    264     -19.1912      2.00000
    265     -19.1912      2.00000
    266     -19.1911      2.00000
    267     -19.1911      2.00000
    268     -19.1911      2.00000
    269     -19.1910      2.00000
    270     -19.1910      2.00000
    271     -19.1910      2.00000
    272     -19.1910      2.00000
    273     -19.1909      2.00000
    274     -19.1909      2.00000
    275     -19.1908      2.00000
    276     -19.1908      2.00000
    277     -19.1908      2.00000
    278     -19.1908      2.00000
    279     -19.1908      2.00000
    280     -19.1908      2.00000
    281     -19.1907      2.00000
    282     -19.1907      2.00000
    283     -19.1907      2.00000
    284     -19.1907      2.00000
    285     -19.1906      2.00000
    286     -19.1906      2.00000
    287     -19.1905      2.00000
    288     -19.1904      2.00000
    289     -19.1904      2.00000
    290     -19.1904      2.00000
    291     -19.1903      2.00000
    292     -19.1903      2.00000
    293     -19.1903      2.00000
    294     -19.1902      2.00000
    295     -19.1902      2.00000
    296     -19.1902      2.00000
    297     -19.1902      2.00000
    298     -19.1901      2.00000
    299     -19.1901      2.00000
    300     -19.1900      2.00000
    301     -19.1900      2.00000
    302     -19.1899      2.00000
    303     -19.1899      2.00000
    304     -19.1897      2.00000
    305     -19.1896      2.00000
    306     -19.1895      2.00000
    307     -19.1894      2.00000
    308     -19.1892      2.00000
    309     -19.1892      2.00000
    310     -19.1891      2.00000
    311     -19.1891      2.00000
    312     -19.1890      2.00000
    313     -19.1889      2.00000
    314     -19.1889      2.00000
    315     -19.1888      2.00000
    316     -19.1885      2.00000
    317     -19.1885      2.00000
    318     -19.1884      2.00000
    319     -19.1875      2.00000
    320     -19.1874      2.00000
    321      -6.8523      2.00000
    322      -6.7677      2.00000
    323      -6.7677      2.00000
    324      -6.5170      2.00000
    325      -6.5170      2.00000
    326      -6.1940      2.00000
    327      -6.1120      2.00000
    328      -6.1119      2.00000
    329      -6.1119      2.00000
    330      -6.1119      2.00000
    331      -5.8689      2.00000
    332      -5.8688      2.00000
    333      -5.5851      2.00000
    334      -5.5850      2.00000
    335      -5.5850      2.00000
    336      -5.5850      2.00000
    337      -5.5421      2.00000
    338      -5.5418      2.00000
    339      -5.4761      2.00000
    340      -5.4760      2.00000
    341      -5.4760      2.00000
    342      -5.4759      2.00000
    343      -5.3536      2.00000
    344      -5.3533      2.00000
    345      -5.2154      2.00000
    346      -5.2154      2.00000
    347      -5.0340      2.00000
    348      -5.0340      2.00000
    349      -5.0339      2.00000
    350      -5.0339      2.00000
    351      -4.9623      2.00000
    352      -4.9623      2.00000
    353      -4.8134      2.00000
    354      -4.8133      2.00000
    355      -4.7510      2.00000
    356      -4.7510      2.00000
    357      -4.7170      2.00000
    358      -4.7166      2.00000
    359      -4.6086      2.00000
    360      -4.6082      2.00000
    361      -4.6082      2.00000
    362      -4.6078      2.00000
    363      -4.4139      2.00000
    364      -4.4137      2.00000
    365      -4.4137      2.00000
    366      -4.4135      2.00000
    367      -4.3012      2.00000
    368      -4.3012      2.00000
    369      -4.1304      2.00000
    370      -4.1304      2.00000
    371      -4.1238      2.00000
    372      -4.1216      2.00000
    373      -4.1212      2.00000
    374      -4.1212      2.00000
    375      -4.1207      2.00000
    376      -4.1185      2.00000
    377      -4.1184      2.00000
    378      -3.7907      2.00000
    379      -3.7907      2.00000
    380      -3.7906      2.00000
    381      -3.7906      2.00000
    382      -3.7034      2.00000
    383      -3.7034      2.00000
    384      -3.5801      2.00000
    385      -2.6291      2.00000
    386      -2.4327      2.00000
    387      -2.4327      2.00000
    388      -2.3754      2.00000
    389      -2.3754      2.00000
    390      -2.3753      2.00000
    391      -2.3753      2.00000
    392      -2.0632      2.00000
    393      -2.0632      2.00000
    394      -2.0438      2.00000
    395      -2.0429      2.00000
    396      -2.0428      2.00000
    397      -2.0419      2.00000
    398      -2.0220      2.00000
    399      -1.9567      2.00000
    400      -1.9567      2.00000
    401      -1.9295      2.00000
    402      -1.9295      2.00000
    403      -1.8643      2.00000
    404      -1.8633      2.00000
    405      -1.8296      2.00000
    406      -1.8296      2.00000
    407      -1.7280      2.00000
    408      -1.7269      2.00000
    409      -1.7269      2.00000
    410      -1.7258      2.00000
    411      -1.7037      2.00000
    412      -1.7033      2.00000
    413      -1.7032      2.00000
    414      -1.7028      2.00000
    415      -1.4919      2.00000
    416      -1.4919      2.00000
    417      -1.4918      2.00000
    418      -1.4918      2.00000
    419      -1.2169      2.00000
    420      -1.2159      2.00000
    421      -1.1755      2.00000
    422      -1.1751      2.00000
    423      -0.9989      2.00000
    424      -0.9989      2.00000
    425      -0.8623      2.00000
    426      -0.8615      2.00000
    427      -0.5875      2.00000
    428      -0.5875      2.00000
    429      -0.4893      2.00000
    430      -0.4891      2.00000
    431      -0.4891      2.00000
    432      -0.4889      2.00000
    433      -0.3135      2.00000
    434      -0.3128      2.00000
    435      -0.3128      2.00000
    436      -0.3121      2.00000
    437       0.2643      2.00000
    438       0.2652      2.00000
    439       0.7358      2.00000
    440       0.7362      2.00000
    441       0.7363      2.00000
    442       0.7367      2.00000
    443       0.8141      2.00000
    444       0.9583      2.00000
    445       0.9583      2.00000
    446       0.9586      2.00000
    447       0.9587      2.00000
    448       0.9588      2.00000
    449       0.9761      2.00000
    450       0.9761      2.00000
    451       1.1452      2.00000
    452       1.1452      2.00000
    453       1.2446      2.00000
    454       1.2447      2.00000
    455       1.2449      2.00000
    456       1.2450      2.00000
    457       1.3427      2.00000
    458       1.4037      2.00000
    459       1.4037      2.00000
    460       1.4282      2.00000
    461       1.4284      2.00000
    462       1.4286      2.00000
    463       1.4288      2.00000
    464       1.4968      2.00000
    465       1.4969      2.00000
    466       1.4974      2.00000
    467       1.4975      2.00000
    468       1.5860      2.00000
    469       1.5860      2.00000
    470       1.9366      2.00000
    471       1.9366      2.00000
    472       1.9911      2.00000
    473       1.9911      2.00000
    474       2.0112      2.00000
    475       2.0112      2.00000
    476       2.0297      2.00000
    477       2.0304      2.00000
    478       2.1433      2.00000
    479       2.1436      2.00000
    480       2.1437      2.00000
    481       2.1439      2.00000
    482       2.1880      2.00000
    483       2.1880      2.00000
    484       2.2071      2.00000
    485       2.2075      2.00000
    486       2.2273      2.00000
    487       2.2273      2.00000
    488       2.2278      2.00000
    489       2.2278      2.00000
    490       2.2714      2.00000
    491       2.2714      2.00000
    492       2.3340      2.00000
    493       2.3340      2.00000
    494       2.3759      2.00000
    495       2.3759      2.00000
    496       2.3878      2.00000
    497       2.3878      2.00000
    498       2.4121      2.00000
    499       2.4348      2.00000
    500       2.4350      2.00000
    501       2.4353      2.00000
    502       2.4355      2.00000
    503       2.4956      2.00000
    504       2.4960      2.00000
    505       2.4962      2.00000
    506       2.4966      2.00000
    507       2.5167      2.00000
    508       2.5167      2.00000
    509       2.5929      2.00000
    510       2.5931      2.00000
    511       2.5934      2.00000
    512       2.5936      2.00000
    513       2.6747      2.00000
    514       2.6750      2.00000
    515       2.6750      2.00000
    516       2.6754      2.00000
    517       2.6850      2.00000
    518       2.6850      2.00000
    519       2.7079      2.00000
    520       2.8027      2.00000
    521       2.8037      2.00000
    522       2.8094      2.00000
    523       2.8095      2.00000
    524       2.9068      2.00000
    525       2.9069      2.00000
    526       2.9070      2.00000
    527       2.9070      2.00000
    528       2.9526      2.00000
    529       3.0158      2.00000
    530       3.0168      2.00000
    531       3.1078      2.00000
    532       3.1081      2.00000
    533       3.1084      2.00000
    534       3.1088      2.00000
    535       3.1561      2.00000
    536       3.1578      2.00000
    537       3.1583      2.00000
    538       3.1589      2.00000
    539       3.1590      2.00000
    540       3.1593      2.00000
    541       3.1600      2.00000
    542       3.3338      2.00000
    543       3.3340      2.00000
    544       3.3937      2.00000
    545       3.3946      2.00000
    546       3.4138      2.00000
    547       3.4138      2.00000
    548       3.4589      2.00000
    549       3.4591      2.00000
    550       3.4714      2.00000
    551       3.4715      2.00000
    552       3.4997      2.00000
    553       3.5000      2.00000
    554       3.5002      2.00000
    555       3.5006      2.00000
    556       3.6452      2.00000
    557       3.6455      2.00000
    558       3.7356      2.00000
    559       3.7362      2.00000
    560       3.7365      2.00000
    561       3.7371      2.00000
    562       4.0465      2.00000
    563       4.0467      2.00000
    564       4.0567      2.00000
    565       4.0572      2.00000
    566       4.0574      2.00000
    567       4.0579      2.00000
    568       4.2409      2.00000
    569       4.3035      2.00000
    570       4.3036      2.00000
    571       4.3334      2.00000
    572       4.3335      2.00000
    573       4.4236      2.00000
    574       4.4248      2.00000
    575       4.4901      2.00000
    576       4.9699      2.00000
    577       6.0214      0.00000
    578       6.0215      0.00000
    579       6.1070      0.00000
    580       6.3302      0.00000
    581       6.3302      0.00000
    582       6.4854      0.00000
    583       6.4854      0.00000
    584       6.6368      0.00000
    585       6.6374      0.00000
    586       6.6454      0.00000
    587       6.6455      0.00000
    588       6.6460      0.00000
    589       6.6460      0.00000
    590       6.6565      0.00000
    591       6.6570      0.00000
    592       6.6638      0.00000
    593       6.8695      0.00000
    594       6.8695      0.00000
    595       6.9489      0.00000
    596       6.9489      0.00000
    597       6.9982      0.00000
    598       6.9984      0.00000
    599       7.0438      0.00000
    600       7.0440      0.00000
    601       7.0607      0.00000
    602       7.0607      0.00000
    603       7.1795      0.00000
    604       7.1798      0.00000
    605       7.1802      0.00000
    606       7.1803      0.00000
    607       7.1829      0.00000
    608       7.1830      0.00000
    609       7.2074      0.00000
    610       7.2076      0.00000
    611       7.2079      0.00000
    612       7.2082      0.00000
    613       7.2312      0.00000
    614       7.2315      0.00000
    615       7.2318      0.00000
    616       7.2319      0.00000
    617       7.2323      0.00000
    618       7.2997      0.00000
    619       7.3001      0.00000
    620       7.3668      0.00000
    621       7.3671      0.00000
    622       7.3673      0.00000
    623       7.3676      0.00000
    624       7.3848      0.00000
    625       7.3848      0.00000
    626       7.5170      0.00000
    627       7.5171      0.00000
    628       7.5172      0.00000
    629       7.5172      0.00000
    630       7.5412      0.00000
    631       7.5480      0.00000
    632       7.5482      0.00000
    633       7.5485      0.00000
    634       7.5486      0.00000
    635       7.6242      0.00000
    636       7.6242      0.00000
    637       7.6827      0.00000
    638       7.7016      0.00000
    639       7.7021      0.00000
    640       7.7293      0.00000
    641       7.7293      0.00000
    642       7.7822      0.00000
    643       7.7823      0.00000
    644       7.7827      0.00000
    645       7.7827      0.00000
    646       7.8829      0.00000
    647       7.8988      0.00000
    648       7.8988      0.00000
    649       7.9488      0.00000
    650       7.9488      0.00000
    651       8.0218      0.00000
    652       8.1602      0.00000
    653       8.1605      0.00000
    654       8.1607      0.00000
    655       8.1610      0.00000
    656       8.2461      0.00000
    657       8.2462      0.00000
    658       8.2524      0.00000
    659       8.2527      0.00000
    660       8.2527      0.00000
    661       8.2532      0.00000
    662       8.3603      0.00000
    663       8.3603      0.00000
    664       8.4034      0.00000
    665       8.4035      0.00000
    666       8.4270      0.00000
    667       8.4273      0.00000
    668       8.4278      0.00000
    669       8.4279      0.00000
    670       8.4313      0.00000
    671       8.4320      0.00000
    672       8.4322      0.00000
    673       8.4331      0.00000
    674       8.4685      0.00000
    675       8.4689      0.00000
    676       8.6107      0.00000
    677       8.6113      0.00000
    678       8.6128      0.00000
    679       8.6168      0.00000
    680       8.6172      0.00000
    681       8.6174      0.00000
    682       8.6177      0.00000
    683       8.6191      0.00000
    684       8.6192      0.00000
    685       8.6737      0.00000
    686       8.6737      0.00000
    687       8.7512      0.00000
    688       8.7515      0.00000
    689       8.7778      0.00000
    690       8.7787      0.00000
    691       8.7995      0.00000
    692       8.7997      0.00000
    693       8.8004      0.00000
    694       8.8005      0.00000
    695       8.8133      0.00000
    696       8.8137      0.00000
    697       8.8139      0.00000
    698       8.8144      0.00000
    699       8.8283      0.00000
    700       8.8285      0.00000
    701       8.8735      0.00000
    702       8.9969      0.00000
    703       8.9987      0.00000
    704       9.1179      0.00000


--------------------------------------------------------------------------------------------------------


 soft charge-density along one line, spin component           1
         0         1         2         3         4         5         6         7         8         9
 total charge-density along one line
 
 pseudopotential strength for first ion, spin component:           1
 18.542  25.870   0.000   0.000  -0.000   0.000   0.000  -0.000
 25.870  36.099   0.000   0.000  -0.000   0.000   0.000  -0.000
  0.000   0.000   4.193   0.000  -0.000   7.815   0.000  -0.000
  0.000   0.000   0.000   4.193  -0.000   0.000   7.815  -0.000
 -0.000  -0.000  -0.000  -0.000   4.193  -0.000  -0.000   7.815
  0.000   0.000   7.815   0.000  -0.000  14.575   0.000  -0.000
  0.000   0.000   0.000   7.815  -0.000   0.000  14.575  -0.000
 -0.000  -0.000  -0.000  -0.000   7.815  -0.000  -0.000  14.575
 total augmentation occupancy for first ion, spin component:           1
  4.963  -1.777   0.013   0.013  -0.000  -0.004  -0.004   0.000
 -1.777   0.788  -0.006  -0.006   0.000   0.002   0.002  -0.000
  0.013  -0.006   2.606   0.000  -0.014  -0.562  -0.000   0.004
  0.013  -0.006   0.000   2.606  -0.014  -0.000  -0.562   0.004
 -0.000   0.000  -0.014  -0.014   2.606   0.004   0.004  -0.562
 -0.004   0.002  -0.562  -0.000   0.004   0.131   0.000  -0.001
 -0.004   0.002  -0.000  -0.562   0.004   0.000   0.131  -0.001
  0.000  -0.000   0.004   0.004  -0.562  -0.001  -0.001   0.131


------------------------ aborting loop because EDIFF is reached ----------------------------------------


    CHARGE:  cpu time      1.7791: real time      1.7882
    FORLOC:  cpu time      0.0302: real time      0.0303
    FORNL :  cpu time     25.3969: real time     25.4807
    STRESS:  cpu time     36.9270: real time     37.0756
    FORCOR:  cpu time      0.2098: real time      0.2106
    FORHAR:  cpu time      0.0828: real time      0.0831
    MIXING:  cpu time      0.0040: real time      0.0040
    OFIELD:  cpu time      0.0000: real time      0.0000

  FORCE on cell =-STRESS in cart. coord.  units (eV):
  Direction    XX          YY          ZZ          XY          YZ          ZX
  --------------------------------------------------------------------------------------
  Alpha Z  2970.02516  2970.02516  2970.02516
  Ewald  -29135.62561-29135.63849-29135.63849    -1.83019     0.00530    -1.83019
  Hartree 17917.58173 17917.57798 17917.57798    -0.58726     0.00153    -0.58726
  E(xc)   -6072.21194 -6072.21194 -6072.21194    -0.00089     0.00045    -0.00089
  Local   -4111.79622 -4111.77997 -4111.77997     2.36070    -0.00618     2.36070
  n-local  4316.20673  4324.01850  4308.39320     2.56795     0.00097    -2.76318
  augment  7702.48224  7702.48244  7702.48244     0.02165     0.00001     0.02165
  Kinetic  6412.97617  6424.49704  6401.45593     3.80723     0.00002    -3.65158
  Fock        0.00000     0.00000     0.00000     0.00000     0.00000     0.00000
  -------------------------------------------------------------------------------------
  Total      -0.36175    -0.36250    -0.36250    -0.05579     0.00210    -0.05579
  in kB      -0.20652    -0.20695    -0.20695    -0.03185     0.00120    -0.03185
  external pressure =       -0.21 kB  Pullay stress =        0.00 kB


 VOLUME and BASIS-vectors are now :
 -----------------------------------------------------------------------------
  energy-cutoff  :      600.00
  volume of cell :     2806.40
      direct lattice vectors                 reciprocal lattice vectors
    -0.000000000 11.195406075 11.195406075    -0.044661176  0.044661176  0.044661176
    11.195406075 -0.000000000 11.195406075     0.044661176 -0.044661176  0.044661176
    11.195406075 11.195406075  0.000000000     0.044661176  0.044661176 -0.044661176

  length of vectors
    15.832695107 15.832695107 15.832695107     0.077355426  0.077355426  0.077355426


 FORCES acting on ions
    electron-ion (+dipol)            ewald-force                    non-local-force                 convergence-correction
 -----------------------------------------------------------------------------------------------
   -.130E-01 0.713E+00 0.713E+00   0.126E-01 -.698E+00 -.698E+00   0.176E-02 -.976E-01 -.976E-01   -.208E-04 -.993E-05 -.993E-05
   -.455E-03 -.545E-01 -.545E-01   -.240E-13 0.555E-01 0.555E-01   -.813E-03 0.143E-02 0.143E-02   0.122E-04 -.194E-05 -.194E-05
   -.621E-05 -.133E-01 -.133E-01   0.600E-13 0.133E-01 0.133E-01   0.157E-04 0.576E-04 0.576E-04   -.162E-04 0.211E-05 0.211E-05
   0.381E-03 -.541E-01 -.541E-01   0.000E+00 0.551E-01 0.551E-01   0.870E-03 0.138E-02 0.138E-02   -.176E-04 0.884E-05 0.884E-05
   -.436E-01 0.145E-01 -.202E-01   0.398E-01 -.239E-01 0.155E-01   0.567E-02 0.589E-02 0.652E-02   0.464E-05 0.658E-05 0.161E-04
   -.669E-02 -.518E-02 -.117E-01   0.683E-02 0.560E-02 0.120E-01   -.232E-03 -.627E-04 -.198E-03   -.668E-05 -.286E-04 -.343E-05
   0.664E-02 -.117E-01 -.521E-02   -.678E-02 0.120E-01 0.561E-02   0.228E-03 -.203E-03 -.727E-04   0.202E-04 0.163E-04 -.375E-05
   0.436E-01 -.203E-01 0.143E-01   -.397E-01 0.156E-01 -.237E-01   -.567E-02 0.655E-02 0.585E-02   0.307E-05 -.129E-04 0.101E-04
   -.802E-02 -.168E-02 -.525E-02   0.839E-02 -.260E-02 0.495E-02   -.187E-03 0.282E-02 0.241E-03   0.170E-05 0.629E-05 -.156E-04
   -.138E-04 0.149E-02 0.144E-02   0.181E-04 -.121E-02 -.119E-02   0.358E-06 0.150E-03 0.173E-03   -.465E-05 -.672E-05 0.111E-05
   0.804E-02 -.528E-02 -.165E-02   -.839E-02 0.495E-02 -.260E-02   0.176E-03 0.239E-03 0.279E-02   -.873E-05 0.132E-04 -.241E-05
   0.306E-04 0.242E-02 0.244E-02   -.181E-04 -.119E-02 -.121E-02   -.852E-06 -.812E-03 -.800E-03   -.123E-04 0.880E-05 -.480E-05
   -.341E-01 0.148E-01 -.108E-01   0.397E-01 -.237E-01 0.156E-01   -.512E-02 0.671E-02 -.423E-02   0.523E-05 -.154E-04 0.180E-04
   0.340E-01 -.106E-01 0.150E-01   -.398E-01 0.155E-01 -.239E-01   0.515E-02 -.429E-02 0.671E-02   0.140E-04 -.359E-05 -.104E-04
   0.714E-02 -.111E-01 -.470E-02   -.683E-02 0.120E-01 0.560E-02   -.163E-03 -.733E-03 -.641E-03   0.751E-05 -.853E-06 0.123E-05
   -.710E-02 -.470E-02 -.111E-01   0.678E-02 0.561E-02 0.120E-01   0.157E-03 -.651E-03 -.729E-03   0.829E-06 -.331E-06 0.122E-04
   -.436E-01 -.202E-01 0.145E-01   0.398E-01 0.155E-01 -.239E-01   0.567E-02 0.652E-02 0.589E-02   0.464E-05 0.161E-04 0.658E-05
   -.669E-02 -.117E-01 -.518E-02   0.683E-02 0.120E-01 0.560E-02   -.232E-03 -.198E-03 -.627E-04   -.668E-05 -.343E-05 -.286E-04
   0.664E-02 -.521E-02 -.117E-01   -.678E-02 0.561E-02 0.120E-01   0.228E-03 -.727E-04 -.203E-03   0.202E-04 -.375E-05 0.163E-04
   0.436E-01 0.143E-01 -.203E-01   -.397E-01 -.237E-01 0.156E-01   -.567E-02 0.585E-02 0.655E-02   0.307E-05 0.101E-04 -.129E-04
   -.101E-01 -.238E-02 -.238E-02   0.106E-01 0.181E-02 0.181E-02   -.256E-03 0.455E-03 0.455E-03   0.331E-04 -.119E-04 -.119E-04
   -.864E-05 -.237E-02 -.237E-02   0.141E-04 0.243E-02 0.243E-02   -.939E-05 -.237E-05 -.237E-05   0.165E-05 0.161E-04 0.161E-04
   0.101E-01 -.240E-02 -.240E-02   -.106E-01 0.182E-02 0.182E-02   0.227E-03 0.462E-03 0.462E-03   -.273E-05 -.131E-04 -.131E-04
   0.528E-04 0.709E-02 0.709E-02   -.368E-04 -.630E-02 -.630E-02   -.261E-04 -.633E-03 -.633E-03   0.746E-05 0.861E-05 0.861E-05
   -.280E-02 0.427E-02 -.154E-02   0.379E-02 -.499E-02 0.140E-02   -.519E-03 0.695E-03 0.336E-04   -.255E-04 -.140E-04 -.103E-04
   0.280E-02 -.153E-02 0.427E-02   -.378E-02 0.137E-02 -.499E-02   0.511E-03 0.367E-04 0.691E-03   0.124E-04 0.735E-06 0.252E-05
   0.319E-02 -.323E-02 0.425E-03   -.315E-02 0.365E-02 0.711E-05   -.349E-04 -.331E-03 -.332E-03   -.109E-05 0.109E-04 -.490E-05
   -.316E-02 0.399E-03 -.323E-02   0.313E-02 0.170E-04 0.364E-02   0.325E-04 -.332E-03 -.317E-03   -.157E-04 0.126E-04 0.175E-05
   0.186E-04 0.234E-01 0.233E-01   -.480E-13 -.243E-01 -.241E-01   -.187E-04 0.875E-03 0.866E-03   0.634E-06 0.171E-04 0.315E-05
   0.309E-03 -.196E-01 0.683E-02   -.332E-13 0.199E-01 -.634E-02   -.304E-03 -.206E-03 -.334E-03   -.501E-05 -.293E-04 0.654E-05
   0.348E-05 -.643E-02 -.639E-02   -.182E-13 0.679E-02 0.677E-02   -.767E-05 -.299E-03 -.284E-03   0.346E-05 0.158E-04 -.183E-04
   -.305E-03 0.675E-02 -.196E-01   -.320E-13 -.626E-02 0.199E-01   0.295E-03 -.323E-03 -.217E-03   0.697E-05 0.479E-05 0.110E-05
   -.802E-02 -.525E-02 -.168E-02   0.839E-02 0.495E-02 -.260E-02   -.187E-03 0.241E-03 0.282E-02   0.170E-05 -.156E-04 0.629E-05
   -.138E-04 0.144E-02 0.149E-02   0.181E-04 -.119E-02 -.121E-02   0.358E-06 0.173E-03 0.150E-03   -.465E-05 0.111E-05 -.672E-05
   0.804E-02 -.165E-02 -.528E-02   -.839E-02 -.260E-02 0.495E-02   0.176E-03 0.279E-02 0.239E-03   -.873E-05 -.241E-05 0.132E-04
   0.306E-04 0.244E-02 0.242E-02   -.181E-04 -.121E-02 -.119E-02   -.852E-06 -.800E-03 -.812E-03   -.123E-04 -.480E-05 0.880E-05
   -.280E-02 -.154E-02 0.427E-02   0.379E-02 0.140E-02 -.499E-02   -.519E-03 0.336E-04 0.695E-03   -.255E-04 -.103E-04 -.140E-04
   0.280E-02 0.427E-02 -.153E-02   -.378E-02 -.499E-02 0.137E-02   0.511E-03 0.691E-03 0.367E-04   0.124E-04 0.252E-05 0.735E-06
   0.319E-02 0.425E-03 -.323E-02   -.315E-02 0.711E-05 0.365E-02   -.349E-04 -.332E-03 -.331E-03   -.109E-05 -.490E-05 0.109E-04
   -.316E-02 -.323E-02 0.399E-03   0.313E-02 0.364E-02 0.170E-04   0.325E-04 -.317E-03 -.332E-03   -.157E-04 0.175E-05 0.126E-04
   0.112E-04 0.276E-02 0.276E-02   -.193E-13 -.345E-02 -.345E-02   -.186E-04 0.403E-03 0.403E-03   0.730E-05 0.131E-04 0.131E-04
   0.177E-03 -.306E-03 -.306E-03   -.775E-13 0.497E-03 0.497E-03   -.162E-03 -.101E-03 -.101E-03   -.275E-04 0.390E-05 0.390E-05
   -.137E-05 -.213E-02 -.213E-02   -.366E-13 0.243E-02 0.243E-02   -.860E-05 -.211E-03 -.211E-03   0.873E-05 -.670E-05 -.670E-05
   -.166E-03 -.308E-03 -.308E-03   -.493E-13 0.508E-03 0.508E-03   0.169E-03 -.963E-04 -.963E-04   0.972E-05 -.113E-04 -.113E-04
   -.257E-02 -.178E-02 0.500E-02   0.378E-02 0.137E-02 -.499E-02   -.837E-03 0.250E-03 0.290E-04   0.161E-04 -.187E-04 -.639E-05
   -.293E-02 -.350E-02 0.249E-03   0.315E-02 0.365E-02 0.711E-05   -.225E-03 -.911E-04 -.158E-03   0.887E-05 0.225E-04 0.109E-04
   0.291E-02 0.246E-03 -.348E-02   -.313E-02 0.170E-04 0.364E-02   0.217E-03 -.154E-03 -.640E-04   0.154E-05 0.695E-06 -.160E-04
   0.257E-02 0.498E-02 -.181E-02   -.379E-02 -.499E-02 0.140E-02   0.828E-03 0.260E-04 0.231E-03   0.609E-05 0.392E-05 0.269E-05
   -.341E-01 -.108E-01 0.148E-01   0.397E-01 0.156E-01 -.237E-01   -.512E-02 -.423E-02 0.671E-02   0.523E-05 0.180E-04 -.154E-04
   0.340E-01 0.150E-01 -.106E-01   -.398E-01 -.239E-01 0.155E-01   0.515E-02 0.671E-02 -.429E-02   0.140E-04 -.104E-04 -.359E-05
   0.714E-02 -.470E-02 -.111E-01   -.683E-02 0.560E-02 0.120E-01   -.163E-03 -.641E-03 -.733E-03   0.751E-05 0.123E-05 -.853E-06
   -.710E-02 -.111E-01 -.470E-02   0.678E-02 0.120E-01 0.561E-02   0.157E-03 -.729E-03 -.651E-03   0.829E-06 0.122E-04 -.331E-06
   0.186E-04 0.233E-01 0.234E-01   -.622E-13 -.241E-01 -.243E-01   -.187E-04 0.866E-03 0.875E-03   0.634E-06 0.315E-05 0.171E-04
   0.309E-03 0.683E-02 -.196E-01   -.223E-13 -.634E-02 0.199E-01   -.304E-03 -.334E-03 -.206E-03   -.501E-05 0.654E-05 -.293E-04
   0.348E-05 -.639E-02 -.643E-02   -.393E-13 0.677E-02 0.679E-02   -.767E-05 -.284E-03 -.299E-03   0.346E-05 -.183E-04 0.158E-04
   -.305E-03 -.196E-01 0.675E-02   -.586E-13 0.199E-01 -.626E-02   0.295E-03 -.217E-03 -.323E-03   0.697E-05 0.110E-05 0.479E-05
   -.257E-02 0.500E-02 -.178E-02   0.378E-02 -.499E-02 0.137E-02   -.837E-03 0.290E-04 0.250E-03   0.161E-04 -.639E-05 -.187E-04
   -.293E-02 0.249E-03 -.350E-02   0.315E-02 0.711E-05 0.365E-02   -.225E-03 -.158E-03 -.911E-04   0.887E-05 0.109E-04 0.225E-04
   0.291E-02 -.348E-02 0.246E-03   -.313E-02 0.364E-02 0.170E-04   0.217E-03 -.640E-04 -.154E-03   0.154E-05 -.160E-04 0.695E-06
   0.257E-02 -.181E-02 0.498E-02   -.379E-02 0.140E-02 -.499E-02   0.828E-03 0.231E-03 0.260E-04   0.609E-05 0.269E-05 0.392E-05
   -.926E-02 -.213E-02 -.213E-02   0.106E-01 0.182E-02 0.182E-02   -.970E-03 0.176E-03 0.176E-03   -.615E-05 0.205E-05 0.205E-05
   -.449E-04 0.649E-02 0.649E-02   0.368E-04 -.630E-02 -.630E-02   0.176E-04 -.225E-04 -.225E-04   -.900E-05 0.153E-05 0.153E-05
   0.931E-02 -.213E-02 -.213E-02   -.106E-01 0.181E-02 0.181E-02   0.967E-03 0.190E-03 0.190E-03   -.268E-04 -.179E-05 -.179E-05
   0.370E-04 -.207E-02 -.207E-02   -.141E-04 0.243E-02 0.243E-02   -.356E-05 -.288E-03 -.288E-03   -.208E-04 -.231E-05 -.231E-05
   -.256E-01 -.222E-01 -.222E-01   0.259E-01 0.214E-01 0.214E-01   -.379E-03 0.706E-03 0.706E-03   0.525E-04 0.104E-04 0.104E-04
   0.254E-01 -.222E-01 -.222E-01   -.258E-01 0.214E-01 0.214E-01   0.385E-03 0.706E-03 0.706E-03   -.357E-04 0.738E-06 0.738E-06
   0.978E-01 0.181E-01 0.181E-01   -.946E-01 -.169E-01 -.169E-01   -.286E-02 -.106E-02 -.106E-02   0.276E-04 0.373E-05 0.373E-05
   -.978E-01 0.184E-01 0.184E-01   0.945E-01 -.172E-01 -.172E-01   0.284E-02 -.105E-02 -.105E-02   0.984E-05 -.107E-04 -.107E-04
   -.198E-04 0.327E-02 0.327E-02   0.457E-04 -.444E-02 -.439E-02   -.123E-04 0.107E-02 0.109E-02   -.467E-05 0.323E-05 -.508E-04
   0.254E-01 -.110E-01 0.613E-02   -.233E-01 0.121E-01 -.620E-02   -.190E-02 -.968E-03 0.105E-03   -.125E-04 0.205E-04 0.384E-04
   0.631E-04 0.175E-02 0.178E-02   -.522E-04 -.156E-02 -.159E-02   -.110E-04 -.253E-03 -.265E-03   0.831E-05 -.148E-04 -.197E-05
   -.254E-01 0.611E-02 -.109E-01   0.233E-01 -.619E-02 0.121E-01   0.190E-02 0.114E-03 -.966E-03   -.667E-05 0.364E-04 -.124E-04
   0.369E-01 -.395E-01 0.774E-01   -.322E-01 0.423E-01 -.796E-01   -.415E-02 -.268E-02 0.217E-02   0.314E-04 0.338E-05 0.578E-05
   0.100E-01 -.378E-01 -.814E-02   -.941E-02 0.380E-01 0.777E-02   -.560E-03 -.199E-03 0.297E-03   -.101E-04 0.291E-04 -.144E-04
   -.992E-02 -.825E-02 -.377E-01   0.936E-02 0.785E-02 0.379E-01   0.564E-03 0.303E-03 -.180E-03   -.842E-05 0.121E-04 -.207E-04
   -.369E-01 0.771E-01 -.398E-01   0.322E-01 -.793E-01 0.427E-01   0.410E-02 0.217E-02 -.267E-02   0.452E-04 -.181E-04 -.164E-04
   -.592E-01 -.138E+00 -.185E-01   0.626E-01 0.137E+00 0.150E-01   -.323E-02 0.154E-03 0.308E-02   -.632E-06 0.603E-05 -.271E-04
   -.487E-04 -.364E-01 -.363E-01   0.345E-04 0.354E-01 0.353E-01   0.612E-05 0.937E-03 0.922E-03   0.141E-04 0.126E-04 0.153E-04
   0.588E-01 -.188E-01 -.137E+00   -.622E-01 0.153E-01 0.137E+00   0.322E-02 0.306E-02 0.176E-03   -.758E-05 0.190E-04 -.150E-04
   0.201E-02 0.402E+00 0.398E+00   -.202E-02 -.394E+00 -.390E+00   -.104E-03 -.175E-02 -.139E-02   0.267E-04 0.290E-04 -.416E-04
   -.198E-04 0.327E-02 0.327E-02   0.457E-04 -.439E-02 -.444E-02   -.123E-04 0.109E-02 0.107E-02   -.467E-05 -.508E-04 0.323E-05
   0.254E-01 0.613E-02 -.110E-01   -.233E-01 -.620E-02 0.121E-01   -.190E-02 0.105E-03 -.968E-03   -.125E-04 0.384E-04 0.205E-04
   0.631E-04 0.178E-02 0.175E-02   -.522E-04 -.159E-02 -.156E-02   -.110E-04 -.265E-03 -.253E-03   0.831E-05 -.197E-05 -.148E-04
   -.254E-01 -.109E-01 0.611E-02   0.233E-01 0.121E-01 -.619E-02   0.190E-02 -.966E-03 0.114E-03   -.667E-05 -.124E-04 0.364E-04
   0.766E-02 0.641E-02 0.641E-02   -.503E-02 -.616E-02 -.616E-02   -.227E-02 -.130E-03 -.130E-03   -.312E-05 -.281E-04 -.281E-04
   0.522E-02 -.640E-02 -.640E-02   -.471E-02 0.615E-02 0.615E-02   -.497E-03 0.148E-03 0.148E-03   0.951E-05 0.311E-04 0.311E-04
   -.518E-02 -.640E-02 -.640E-02   0.469E-02 0.616E-02 0.616E-02   0.491E-03 0.162E-03 0.162E-03   -.126E-04 0.260E-05 0.260E-05
   -.761E-02 0.636E-02 0.636E-02   0.505E-02 -.612E-02 -.612E-02   0.226E-02 -.161E-03 -.161E-03   -.314E-04 0.160E-04 0.160E-04
   -.817E-02 -.196E-01 0.996E-02   0.928E-02 0.192E-01 -.109E-01   -.109E-02 0.271E-03 0.809E-03   0.353E-04 0.167E-05 0.116E-04
   -.944E-05 -.116E-01 -.116E-01   0.150E-04 0.109E-01 0.108E-01   0.762E-05 0.649E-03 0.653E-03   -.619E-05 0.231E-04 -.189E-04
   0.816E-02 0.989E-02 -.196E-01   -.927E-02 -.108E-01 0.193E-01   0.108E-02 0.819E-03 0.259E-03   -.281E-05 -.164E-04 0.191E-04
   0.133E-04 0.213E-01 0.211E-01   -.255E-04 -.197E-01 -.196E-01   0.162E-04 -.147E-02 -.150E-02   0.283E-05 -.347E-04 0.271E-04
   -.174E-01 -.191E-01 -.149E-02   0.183E-01 0.172E-01 -.118E-02   -.823E-03 0.176E-02 0.240E-02   0.143E-04 -.417E-05 -.810E-05
   0.173E-01 -.152E-02 -.190E-01   -.182E-01 -.114E-02 0.171E-01   0.828E-03 0.238E-02 0.175E-02   -.269E-04 0.375E-05 -.125E-04
   0.339E-01 0.362E-01 -.127E-01   -.284E-01 -.240E-01 0.878E-02   -.574E-02 -.104E-01 0.425E-02   -.628E-05 0.232E-04 0.132E-04
   -.337E-01 -.125E-01 0.363E-01   0.283E-01 0.865E-02 -.241E-01   0.575E-02 0.426E-02 -.104E-01   -.491E-05 0.577E-05 -.174E-04
   0.369E-01 0.774E-01 -.395E-01   -.322E-01 -.796E-01 0.423E-01   -.415E-02 0.217E-02 -.268E-02   0.314E-04 0.578E-05 0.338E-05
   0.100E-01 -.814E-02 -.378E-01   -.941E-02 0.777E-02 0.380E-01   -.560E-03 0.297E-03 -.199E-03   -.101E-04 -.144E-04 0.291E-04
   -.992E-02 -.377E-01 -.825E-02   0.936E-02 0.379E-01 0.785E-02   0.564E-03 -.180E-03 0.303E-03   -.842E-05 -.207E-04 0.121E-04
   -.369E-01 -.398E-01 0.771E-01   0.322E-01 0.427E-01 -.793E-01   0.410E-02 -.267E-02 0.217E-02   0.452E-04 -.164E-04 -.181E-04
   -.817E-02 0.996E-02 -.196E-01   0.928E-02 -.109E-01 0.192E-01   -.109E-02 0.809E-03 0.271E-03   0.353E-04 0.116E-04 0.167E-05
   -.944E-05 -.116E-01 -.116E-01   0.150E-04 0.108E-01 0.109E-01   0.762E-05 0.653E-03 0.649E-03   -.619E-05 -.189E-04 0.231E-04
   0.816E-02 -.196E-01 0.989E-02   -.927E-02 0.193E-01 -.108E-01   0.108E-02 0.259E-03 0.819E-03   -.281E-05 0.191E-04 -.164E-04
   0.133E-04 0.211E-01 0.213E-01   -.255E-04 -.196E-01 -.197E-01   0.162E-04 -.150E-02 -.147E-02   0.283E-05 0.271E-04 -.347E-04
   -.182E-01 -.612E-04 -.612E-04   0.187E-01 -.145E-02 -.145E-02   -.468E-03 0.138E-02 0.138E-02   0.832E-05 0.550E-05 0.550E-05
   0.182E-01 -.317E-05 -.317E-05   -.186E-01 -.148E-02 -.148E-02   0.458E-03 0.138E-02 0.138E-02   -.127E-04 -.213E-04 -.213E-04
   0.151E-01 0.729E-04 0.729E-04   -.140E-01 0.152E-02 0.152E-02   -.685E-03 -.143E-02 -.143E-02   -.359E-05 -.314E-05 -.314E-05
   -.150E-01 0.786E-04 0.786E-04   0.140E-01 0.150E-02 0.150E-02   0.668E-03 -.146E-02 -.146E-02   0.172E-04 0.261E-04 0.261E-04
   -.215E-03 0.402E-01 0.404E-01   0.242E-03 -.471E-01 -.473E-01   0.191E-04 0.629E-02 0.631E-02   -.338E-04 0.176E-04 -.479E-04
   0.476E-01 0.126E-01 -.263E-01   -.498E-01 -.267E-02 0.301E-01   0.252E-02 -.859E-02 -.401E-02   -.926E-05 0.118E-04 0.965E-05
   0.822E-04 -.149E-01 -.150E-01   -.550E-04 0.155E-01 0.155E-01   -.105E-04 -.758E-03 -.785E-03   -.891E-05 -.580E-05 0.461E-04
   -.474E-01 -.263E-01 0.126E-01   0.497E-01 0.302E-01 -.256E-02   -.255E-02 -.404E-02 -.863E-02   -.189E-04 0.583E-05 -.358E-04
   -.592E-01 -.185E-01 -.138E+00   0.626E-01 0.150E-01 0.137E+00   -.323E-02 0.308E-02 0.154E-03   -.632E-06 -.271E-04 0.603E-05
   -.487E-04 -.363E-01 -.364E-01   0.345E-04 0.353E-01 0.354E-01   0.612E-05 0.922E-03 0.937E-03   0.141E-04 0.153E-04 0.126E-04
   0.588E-01 -.137E+00 -.188E-01   -.622E-01 0.137E+00 0.153E-01   0.322E-02 0.176E-03 0.306E-02   -.758E-05 -.150E-04 0.190E-04
   0.201E-02 0.398E+00 0.402E+00   -.202E-02 -.390E+00 -.394E+00   -.104E-03 -.139E-02 -.175E-02   0.267E-04 -.416E-04 0.290E-04
   -.174E-01 -.149E-02 -.191E-01   0.183E-01 -.118E-02 0.172E-01   -.823E-03 0.240E-02 0.176E-02   0.143E-04 -.810E-05 -.417E-05
   0.173E-01 -.190E-01 -.152E-02   -.182E-01 0.171E-01 -.114E-02   0.828E-03 0.175E-02 0.238E-02   -.269E-04 -.125E-04 0.375E-05
   0.339E-01 -.127E-01 0.362E-01   -.284E-01 0.878E-02 -.240E-01   -.574E-02 0.425E-02 -.104E-01   -.628E-05 0.132E-04 0.232E-04
   -.337E-01 0.363E-01 -.125E-01   0.283E-01 -.241E-01 0.865E-02   0.575E-02 -.104E-01 0.426E-02   -.491E-05 -.174E-04 0.577E-05
   -.215E-03 0.404E-01 0.402E-01   0.242E-03 -.473E-01 -.471E-01   0.191E-04 0.631E-02 0.629E-02   -.338E-04 -.479E-04 0.176E-04
   0.476E-01 -.263E-01 0.126E-01   -.498E-01 0.301E-01 -.267E-02   0.252E-02 -.401E-02 -.859E-02   -.926E-05 0.965E-05 0.118E-04
   0.822E-04 -.150E-01 -.149E-01   -.550E-04 0.155E-01 0.155E-01   -.105E-04 -.785E-03 -.758E-03   -.891E-05 0.461E-04 -.580E-05
   -.474E-01 0.126E-01 -.263E-01   0.497E-01 -.256E-02 0.302E-01   -.255E-02 -.863E-02 -.404E-02   -.189E-04 -.358E-04 0.583E-05
   0.759E+00 -.355E+00 -.355E+00   -.806E+00 0.410E+00 0.410E+00   0.195E-01 -.209E-01 -.209E-01   -.267E-04 0.190E-04 0.190E-04
   0.239E-01 -.602E-01 -.602E-01   -.215E-01 0.586E-01 0.586E-01   -.183E-02 0.174E-02 0.174E-02   -.537E-05 -.551E-05 -.551E-05
   -.235E-01 -.600E-01 -.600E-01   0.213E-01 0.584E-01 0.584E-01   0.171E-02 0.170E-02 0.170E-02   -.326E-04 0.137E-04 0.137E-04
   -.750E+00 -.354E+00 -.354E+00   0.796E+00 0.408E+00 0.408E+00   -.196E-01 -.213E-01 -.213E-01   -.200E-04 -.878E-05 -.878E-05
 -----------------------------------------------------------------------------------------------
   -.500E-03 0.116E+00 0.116E+00   -.437E-12 0.437E-13 0.354E-12   0.982E-03 -.116E+00 -.116E+00   -.402E-04 0.649E-04 0.649E-04
 
 
 POSITION                                       TOTAL-FORCE (eV/Angst)
 -----------------------------------------------------------------------------------
     -0.00000      0.00707      0.00707         0.001341     -0.082741     -0.082741
     -0.00000      2.79885      2.79885        -0.001259      0.002394      0.002394
     -0.00000      5.59770      5.59770        -0.000010      0.000101      0.000101
     -0.00000      8.39655      8.39655         0.001230      0.002349      0.002349
      2.79885     -0.00000      2.79885         0.001796     -0.003473      0.001819
      2.79885      2.79885      5.59770        -0.000102      0.000319      0.000116
      2.79885      5.59770      8.39655         0.000098      0.000115      0.000315
      2.79885      8.39655     11.19541        -0.001792      0.001823     -0.003482
      5.59770     -0.00000      5.59770         0.000183     -0.001458     -0.000085
      5.59770      2.79885      8.39655        -0.000003      0.000416      0.000417
      5.59770      5.59770     11.19541        -0.000191     -0.000086     -0.001460
      5.59770      8.39655     13.99426        -0.000004      0.000414      0.000416
      8.39655     -0.00000      8.39655         0.000545     -0.002237      0.000571
      8.39655      2.79885     11.19541        -0.000555      0.000584     -0.002229
      8.39655      5.59770     13.99426         0.000154      0.000172      0.000259
      8.39655      8.39655     16.79311        -0.000161      0.000257      0.000175
      2.79885      2.79885      0.00000         0.001796      0.001819     -0.003473
      2.79885      5.59770      2.79885        -0.000102      0.000116      0.000319
      2.79885      8.39655      5.59770         0.000098      0.000315      0.000115
      2.79885     11.19541      8.39655        -0.001792     -0.003482      0.001823
      5.59770      2.79885      2.79885         0.000229     -0.000137     -0.000137
      5.59770      5.59770      5.59770        -0.000006      0.000068      0.000068
      5.59770      8.39655      8.39655        -0.000239     -0.000137     -0.000137
      5.59770     11.19541     11.19541        -0.000006      0.000166      0.000166
      8.39655      2.79885      5.59770         0.000449     -0.000037     -0.000120
      8.39655      5.59770      8.39655        -0.000460     -0.000119     -0.000035
      8.39655      8.39655     11.19541         0.000008      0.000088      0.000091
      8.39655     11.19541     13.99426        -0.000016      0.000093      0.000089
     11.19541      2.79885      8.39655        -0.000003      0.000026      0.000028
     11.19541      5.59770     11.19541        -0.000004      0.000072      0.000164
     11.19541      8.39655     13.99426        -0.000004      0.000076      0.000077
     11.19541     11.19541     16.79311        -0.000006      0.000166      0.000070
      5.59770      5.59770      0.00000         0.000183     -0.000085     -0.001458
      5.59770      8.39655      2.79885        -0.000003      0.000417      0.000416
      5.59770     11.19541      5.59770        -0.000191     -0.001460     -0.000086
      5.59770     13.99426      8.39655        -0.000004      0.000416      0.000414
      8.39655      5.59770      2.79885         0.000449     -0.000120     -0.000037
      8.39655      8.39655      5.59770        -0.000460     -0.000035     -0.000119
      8.39655     11.19541      8.39655         0.000008      0.000091      0.000088
      8.39655     13.99426     11.19541        -0.000016      0.000089      0.000093
     11.19541      5.59770      5.59770        -0.000004     -0.000274     -0.000274
     11.19541      8.39655      8.39655        -0.000016      0.000090      0.000090
     11.19541     11.19541     11.19541        -0.000005      0.000081      0.000081
     11.19541     13.99426     13.99426         0.000009      0.000089      0.000089
     13.99426      5.59770      8.39655         0.000389     -0.000178      0.000021
     13.99426      8.39655     11.19541        -0.000005      0.000075      0.000106
     13.99426     11.19541     13.99426        -0.000004      0.000106      0.000077
     13.99426     13.99426     16.79311        -0.000397      0.000022     -0.000180
      8.39655      8.39655      0.00000         0.000545      0.000571     -0.002237
      8.39655     11.19541      2.79885        -0.000555     -0.002229      0.000584
      8.39655     13.99426      5.59770         0.000154      0.000259      0.000172
      8.39655     16.79311      8.39655        -0.000161      0.000175      0.000257
     11.19541      8.39655      2.79885        -0.000003      0.000028      0.000026
     11.19541     11.19541      5.59770        -0.000004      0.000164      0.000072
     11.19541     13.99426      8.39655        -0.000004      0.000077      0.000076
     11.19541     16.79311     11.19541        -0.000006      0.000070      0.000166
     13.99426      8.39655      5.59770         0.000389      0.000021     -0.000178
     13.99426     11.19541      8.39655        -0.000005      0.000106      0.000075
     13.99426     13.99426     11.19541        -0.000004      0.000077      0.000106
     13.99426     16.79311     13.99426        -0.000397     -0.000180      0.000022
     16.79311      8.39655      8.39655         0.000349     -0.000137     -0.000137
     16.79311     11.19541     11.19541        -0.000003      0.000165      0.000165
     16.79311     13.99426     13.99426        -0.000357     -0.000135     -0.000135
     16.79311     16.79311     16.79311        -0.000005      0.000068      0.000068
      4.19828      4.19828      4.19828         0.000016     -0.000081     -0.000081
      4.19828      6.99713      6.99713        -0.000009     -0.000081     -0.000081
      4.19828      9.79598      9.79598         0.000377      0.000159      0.000159
      4.19828     12.59483     12.59483        -0.000372      0.000160      0.000160
      6.99713      4.19828      6.99713         0.000005     -0.000092     -0.000092
      6.99713      6.99713      9.79598         0.000231      0.000166      0.000064
      6.99713      9.79598     12.59483         0.000005     -0.000078     -0.000077
      6.99713     12.59483     15.39368        -0.000223      0.000061      0.000168
      9.79598      4.19828      9.79598         0.000579      0.000157     -0.000020
      9.79598      6.99713     12.59483         0.000016     -0.000028     -0.000089
      9.79598      9.79598     15.39368        -0.000009     -0.000090     -0.000028
      9.79598     12.59483     18.19253        -0.000568     -0.000020      0.000160
     12.59483      4.19828     12.59483         0.000182     -0.000218     -0.000417
     12.59483      6.99713     15.39368         0.000003     -0.000059     -0.000058
     12.59483      9.79598     18.19253        -0.000177     -0.000414     -0.000214
     12.59483     12.59483     20.99139        -0.000092      0.006554      0.006667
      6.99713      6.99713      4.19828         0.000005     -0.000092     -0.000092
      6.99713      9.79598      6.99713         0.000231      0.000064      0.000166
      6.99713     12.59483      9.79598         0.000005     -0.000077     -0.000078
      6.99713     15.39368     12.59483        -0.000223      0.000168      0.000061
      9.79598      6.99713      6.99713         0.000353      0.000082      0.000082
      9.79598      9.79598      9.79598         0.000016     -0.000071     -0.000071
      9.79598     12.59483     12.59483        -0.000008     -0.000072     -0.000072
      9.79598     15.39368     15.39368        -0.000342      0.000084      0.000084
     12.59483      6.99713      9.79598         0.000045     -0.000057     -0.000118
     12.59483      9.79598     12.59483         0.000004     -0.000083     -0.000083
     12.59483     12.59483     15.39368        -0.000035     -0.000117     -0.000056
     12.59483     15.39368     18.19253         0.000003      0.000097      0.000097
     15.39368      6.99713     12.59483         0.000089     -0.000145     -0.000289
     15.39368      9.79598     15.39368        -0.000081     -0.000284     -0.000143
     15.39368     12.59483     18.19253        -0.000277      0.001862      0.000379
     15.39368     15.39368     20.99139         0.000289      0.000381      0.001857
      9.79598      9.79598      4.19828         0.000579     -0.000020      0.000157
      9.79598     12.59483      6.99713         0.000016     -0.000089     -0.000028
      9.79598     15.39368      9.79598        -0.000009     -0.000028     -0.000090
      9.79598     18.19253     12.59483        -0.000568      0.000160     -0.000020
     12.59483      9.79598      6.99713         0.000045     -0.000118     -0.000057
     12.59483     12.59483      9.79598         0.000004     -0.000083     -0.000083
     12.59483     15.39368     12.59483        -0.000035     -0.000056     -0.000117
     12.59483     18.19253     15.39368         0.000003      0.000097      0.000097
     15.39368      9.79598      9.79598         0.000034     -0.000130     -0.000130
     15.39368     12.59483     12.59483        -0.000024     -0.000129     -0.000129
     15.39368     15.39368     15.39368         0.000372      0.000147      0.000147
     15.39368     18.19253     18.19253        -0.000364      0.000148      0.000148
     18.19253      9.79598     12.59483         0.000008     -0.000589     -0.000600
     18.19253     12.59483     15.39368         0.000275      0.001324     -0.000173
     18.19253     15.39368     18.19253         0.000004     -0.000221     -0.000220
     18.19253     18.19253     20.99139        -0.000268     -0.000175      0.001326
     12.59483     12.59483      4.19828         0.000182     -0.000417     -0.000218
     12.59483     15.39368      6.99713         0.000003     -0.000058     -0.000059
     12.59483     18.19253      9.79598        -0.000177     -0.000214     -0.000414
     12.59483     20.99139     12.59483        -0.000092      0.006667      0.006554
     15.39368     12.59483      6.99713         0.000089     -0.000289     -0.000145
     15.39368     15.39368      9.79598        -0.000081     -0.000143     -0.000284
     15.39368     18.19253     12.59483        -0.000277      0.000379      0.001862
     15.39368     20.99139     15.39368         0.000289      0.001857      0.000381
     18.19253     12.59483      9.79598         0.000008     -0.000600     -0.000589
     18.19253     15.39368     12.59483         0.000275     -0.000173      0.001324
     18.19253     18.19253     15.39368         0.000004     -0.000220     -0.000221
     18.19253     20.99139     18.19253        -0.000268      0.001326     -0.000175
     20.99139     12.59483     12.59483        -0.027542      0.033999      0.033999
     20.99139     15.39368     15.39368         0.000544      0.000113      0.000113
     20.99139     18.19253     18.19253        -0.000525      0.000105      0.000105
     20.99139     20.99139     20.99139         0.026375      0.033130      0.033130
 -----------------------------------------------------------------------------------
    total drift:                                0.000442      0.000456      0.000456


--------------------------------------------------------------------------------------------------------



  FREE ENERGIE OF THE ION-ELECTRON SYSTEM (eV)
  ---------------------------------------------------
  free  energy   TOTEN  =      -633.20278948 eV

  energy  without entropy=     -633.20278948  energy(sigma->0) =     -633.20278948
 


--------------------------------------------------------------------------------------------------------


    POTLOK:  cpu time      0.2388: real time      0.2543


--------------------------------------------------------------------------------------------------------


 writing wavefunctions
     LOOP+:  cpu time   1454.7389: real time   1461.9188
    4ORBIT:  cpu time      0.0000: real time      0.0000

 total amount of memory used by VASP MPI-rank0   115875. kBytes
=======================================================================

   base      :      30000. kBytes
   nonl-proj :      28937. kBytes
   fftplans  :       6015. kBytes
   grid      :       8672. kBytes
   one-center:        124. kBytes
   wavefun   :      42127. kBytes
 
  
  
 General timing and accounting informations for this job:
 ========================================================
  
                  Total CPU time used (sec):     1539.685
                            User time (sec):     1526.568
                          System time (sec):       13.117
                         Elapsed time (sec):     1549.286
  
                   Maximum memory used (kb):      898188.
                   Average memory used (kb):          N/A
  
                          Minor page faults:        80602
                          Major page faults:          183
                 Voluntary context switches:         3874
