<?xml version="1.0" encoding="ISO-8859-1"?>
<modeling>
 <generator>
  <i name="program" type="string">vasp </i>
  <i name="version" type="string">6.4.3  </i>
  <i name="subversion" type="string">19Mar24 (build Jul 11 2024 12:30:41) complex                          parallel </i>
  <i name="platform" type="string">LinuxIFC </i>
  <i name="date" type="string">2025 12 02 </i>
  <i name="time" type="string">21:22:11 </i>
 </generator>
 <incar>
  <i type="string" name="SYSTEM">SiGe</i>
  <i type="int" name="ISTART">     0</i>
  <i type="string" name="PREC">Accurate</i>
  <i type="int" name="ICHARG">     2</i>
  <i type="int" name="NELM">   200</i>
  <i name="EDIFF">      0.00000001</i>
  <i name="EDIFFG">     -0.00002000</i>
  <i name="ENCUT">    600.00000000</i>
  <i type="int" name="ISMEAR">     0</i>
  <i name="SIGMA">      0.01000000</i>
 </incar>
 <primitive_cell>
  <structure name="primitive_cell" >
   <crystal>
    <varray name="basis" >
     <v>      -0.00000000      11.19540607      11.19540607 </v>
     <v>      11.19540607      -0.00000000      11.19540607 </v>
     <v>      11.19540607      11.19540607       0.00000000 </v>
    </varray>
    <i name="volume">   2806.39984618 </i>
    <varray name="rec_basis" >
     <v>      -0.04466118       0.04466118       0.04466118 </v>
     <v>       0.04466118      -0.04466118       0.04466118 </v>
     <v>       0.04466118       0.04466118      -0.04466118 </v>
    </varray>
   </crystal>
   <varray name="positions" >
    <v>       0.00063160       0.00000000       1.00000000 </v>
    <v>       0.25000000       0.00000000       1.00000000 </v>
    <v>       0.50000000       0.00000000       1.00000000 </v>
    <v>       0.75000000       0.00000000       1.00000000 </v>
    <v>       1.00000000       0.25000000       0.00000000 </v>
    <v>       0.25000000       0.25000000       1.00000000 </v>
    <v>       0.50000000       0.25000000       1.00000000 </v>
    <v>       0.75000000       0.25000000       1.00000000 </v>
    <v>       1.00000000       0.50000000       0.00000000 </v>
    <v>       0.25000000       0.50000000       0.00000000 </v>
    <v>       0.50000000       0.50000000       1.00000000 </v>
    <v>       0.75000000       0.50000000       1.00000000 </v>
    <v>       1.00000000       0.75000000       0.00000000 </v>
    <v>       0.25000000       0.75000000       0.00000000 </v>
    <v>       0.50000000       0.75000000       1.00000000 </v>
    <v>       0.75000000       0.75000000       1.00000000 </v>
    <v>       0.00000000       0.00000000       0.25000000 </v>
    <v>       0.25000000       0.00000000       0.25000000 </v>
    <v>       0.50000000       0.00000000       0.25000000 </v>
    <v>       0.75000000       0.00000000       0.25000000 </v>
    <v>       0.00000000       0.25000000       0.25000000 </v>
    <v>       0.25000000       0.25000000       0.25000000 </v>
    <v>       0.50000000       0.25000000       0.25000000 </v>
    <v>       0.75000000       0.25000000       0.25000000 </v>
    <v>       0.00000000       0.50000000       0.25000000 </v>
    <v>       0.25000000       0.50000000       0.25000000 </v>
    <v>       0.50000000       0.50000000       0.25000000 </v>
    <v>       0.75000000       0.50000000       0.25000000 </v>
    <v>       0.00000000       0.75000000       0.25000000 </v>
    <v>       0.25000000       0.75000000       0.25000000 </v>
    <v>       0.50000000       0.75000000       0.25000000 </v>
    <v>       0.75000000       0.75000000       0.25000000 </v>
    <v>       0.00000000       0.00000000       0.50000000 </v>
    <v>       0.25000000       0.00000000       0.50000000 </v>
    <v>       0.50000000       0.00000000       0.50000000 </v>
    <v>       0.75000000       0.00000000       0.50000000 </v>
    <v>       0.00000000       0.25000000       0.50000000 </v>
    <v>       0.25000000       0.25000000       0.50000000 </v>
    <v>       0.50000000       0.25000000       0.50000000 </v>
    <v>       0.75000000       0.25000000       0.50000000 </v>
    <v>       0.00000000       0.50000000       0.50000000 </v>
    <v>       0.25000000       0.50000000       0.50000000 </v>
    <v>       0.50000000       0.50000000       0.50000000 </v>
    <v>       0.75000000       0.50000000       0.50000000 </v>
    <v>       0.00000000       0.75000000       0.50000000 </v>
    <v>       0.25000000       0.75000000       0.50000000 </v>
    <v>       0.50000000       0.75000000       0.50000000 </v>
    <v>       0.75000000       0.75000000       0.50000000 </v>
    <v>       0.00000000       0.00000000       0.75000000 </v>
    <v>       0.25000000       0.00000000       0.75000000 </v>
    <v>       0.50000000       0.00000000       0.75000000 </v>
    <v>       0.75000000       0.00000000       0.75000000 </v>
    <v>       0.00000000       0.25000000       0.75000000 </v>
    <v>       0.25000000       0.25000000       0.75000000 </v>
    <v>       0.50000000       0.25000000       0.75000000 </v>
    <v>       0.75000000       0.25000000       0.75000000 </v>
    <v>       0.00000000       0.50000000       0.75000000 </v>
    <v>       0.25000000       0.50000000       0.75000000 </v>
    <v>       0.50000000       0.50000000       0.75000000 </v>
    <v>       0.75000000       0.50000000       0.75000000 </v>
    <v>       0.00000000       0.75000000       0.75000000 </v>
    <v>       0.25000000       0.75000000       0.75000000 </v>
    <v>       0.50000000       0.75000000       0.75000000 </v>
    <v>       0.75000000       0.75000000       0.75000000 </v>
    <v>       0.18750000       0.18750000       0.18750000 </v>
    <v>       0.43750000       0.18750000       0.18750000 </v>
    <v>       0.68750000       0.18750000       0.18750000 </v>
    <v>       0.93750000       0.18750000       0.18750000 </v>
    <v>       0.18750000       0.43750000       0.18750000 </v>
    <v>       0.43750000       0.43750000       0.18750000 </v>
    <v>       0.68750000       0.43750000       0.18750000 </v>
    <v>       0.93750000       0.43750000       0.18750000 </v>
    <v>       0.18750000       0.68750000       0.18750000 </v>
    <v>       0.43750000       0.68750000       0.18750000 </v>
    <v>       0.68750000       0.68750000       0.18750000 </v>
    <v>       0.93750000       0.68750000       0.18750000 </v>
    <v>       0.18750000       0.93750000       0.18750000 </v>
    <v>       0.43750000       0.93750000       0.18750000 </v>
    <v>       0.68750000       0.93750000       0.18750000 </v>
    <v>       0.93750000       0.93750000       0.18750000 </v>
    <v>       0.18750000       0.18750000       0.43750000 </v>
    <v>       0.43750000       0.18750000       0.43750000 </v>
    <v>       0.68750000       0.18750000       0.43750000 </v>
    <v>       0.93750000       0.18750000       0.43750000 </v>
    <v>       0.18750000       0.43750000       0.43750000 </v>
    <v>       0.43750000       0.43750000       0.43750000 </v>
    <v>       0.68750000       0.43750000       0.43750000 </v>
    <v>       0.93750000       0.43750000       0.43750000 </v>
    <v>       0.18750000       0.68750000       0.43750000 </v>
    <v>       0.43750000       0.68750000       0.43750000 </v>
    <v>       0.68750000       0.68750000       0.43750000 </v>
    <v>       0.93750000       0.68750000       0.43750000 </v>
    <v>       0.18750000       0.93750000       0.43750000 </v>
    <v>       0.43750000       0.93750000       0.43750000 </v>
    <v>       0.68750000       0.93750000       0.43750000 </v>
    <v>       0.93750000       0.93750000       0.43750000 </v>
    <v>       0.18750000       0.18750000       0.68750000 </v>
    <v>       0.43750000       0.18750000       0.68750000 </v>
    <v>       0.68750000       0.18750000       0.68750000 </v>
    <v>       0.93750000       0.18750000       0.68750000 </v>
    <v>       0.18750000       0.43750000       0.68750000 </v>
    <v>       0.43750000       0.43750000       0.68750000 </v>
    <v>       0.68750000       0.43750000       0.68750000 </v>
    <v>       0.93750000       0.43750000       0.68750000 </v>
    <v>       0.18750000       0.68750000       0.68750000 </v>
    <v>       0.43750000       0.68750000       0.68750000 </v>
    <v>       0.68750000       0.68750000       0.68750000 </v>
    <v>       0.93750000       0.68750000       0.68750000 </v>
    <v>       0.18750000       0.93750000       0.68750000 </v>
    <v>       0.43750000       0.93750000       0.68750000 </v>
    <v>       0.68750000       0.93750000       0.68750000 </v>
    <v>       0.93750000       0.93750000       0.68750000 </v>
    <v>       0.18750000       0.18750000       0.93750000 </v>
    <v>       0.43750000       0.18750000       0.93750000 </v>
    <v>       0.68750000       0.18750000       0.93750000 </v>
    <v>       0.93750000       0.18750000       0.93750000 </v>
    <v>       0.18750000       0.43750000       0.93750000 </v>
    <v>       0.43750000       0.43750000       0.93750000 </v>
    <v>       0.68750000       0.43750000       0.93750000 </v>
    <v>       0.93750000       0.43750000       0.93750000 </v>
    <v>       0.18750000       0.68750000       0.93750000 </v>
    <v>       0.43750000       0.68750000       0.93750000 </v>
    <v>       0.68750000       0.68750000       0.93750000 </v>
    <v>       0.93750000       0.68750000       0.93750000 </v>
    <v>       0.18750000       0.93750000       0.93750000 </v>
    <v>       0.43750000       0.93750000       0.93750000 </v>
    <v>       0.68750000       0.93750000       0.93750000 </v>
    <v>       0.93750000       0.93750000       0.93750000 </v>
   </varray>
  </structure>
  <varray name="primitive_index" >
   <v type="int" >        1 </v>
   <v type="int" >        2 </v>
   <v type="int" >        3 </v>
   <v type="int" >        4 </v>
   <v type="int" >        5 </v>
   <v type="int" >        6 </v>
   <v type="int" >        7 </v>
   <v type="int" >        8 </v>
   <v type="int" >        9 </v>
   <v type="int" >       10 </v>
   <v type="int" >       11 </v>
   <v type="int" >       12 </v>
   <v type="int" >       13 </v>
   <v type="int" >       14 </v>
   <v type="int" >       15 </v>
   <v type="int" >       16 </v>
   <v type="int" >       17 </v>
   <v type="int" >       18 </v>
   <v type="int" >       19 </v>
   <v type="int" >       20 </v>
   <v type="int" >       21 </v>
   <v type="int" >       22 </v>
   <v type="int" >       23 </v>
   <v type="int" >       24 </v>
   <v type="int" >       25 </v>
   <v type="int" >       26 </v>
   <v type="int" >       27 </v>
   <v type="int" >       28 </v>
   <v type="int" >       29 </v>
   <v type="int" >       30 </v>
   <v type="int" >       31 </v>
   <v type="int" >       32 </v>
   <v type="int" >       33 </v>
   <v type="int" >       34 </v>
   <v type="int" >       35 </v>
   <v type="int" >       36 </v>
   <v type="int" >       37 </v>
   <v type="int" >       38 </v>
   <v type="int" >       39 </v>
   <v type="int" >       40 </v>
   <v type="int" >       41 </v>
   <v type="int" >       42 </v>
   <v type="int" >       43 </v>
   <v type="int" >       44 </v>
   <v type="int" >       45 </v>
   <v type="int" >       46 </v>
   <v type="int" >       47 </v>
   <v type="int" >       48 </v>
   <v type="int" >       49 </v>
   <v type="int" >       50 </v>
   <v type="int" >       51 </v>
   <v type="int" >       52 </v>
   <v type="int" >       53 </v>
   <v type="int" >       54 </v>
   <v type="int" >       55 </v>
   <v type="int" >       56 </v>
   <v type="int" >       57 </v>
   <v type="int" >       58 </v>
   <v type="int" >       59 </v>
   <v type="int" >       60 </v>
   <v type="int" >       61 </v>
   <v type="int" >       62 </v>
   <v type="int" >       63 </v>
   <v type="int" >       64 </v>
   <v type="int" >       65 </v>
   <v type="int" >       66 </v>
   <v type="int" >       67 </v>
   <v type="int" >       68 </v>
   <v type="int" >       69 </v>
   <v type="int" >       70 </v>
   <v type="int" >       71 </v>
   <v type="int" >       72 </v>
   <v type="int" >       73 </v>
   <v type="int" >       74 </v>
   <v type="int" >       75 </v>
   <v type="int" >       76 </v>
   <v type="int" >       77 </v>
   <v type="int" >       78 </v>
   <v type="int" >       79 </v>
   <v type="int" >       80 </v>
   <v type="int" >       81 </v>
   <v type="int" >       82 </v>
   <v type="int" >       83 </v>
   <v type="int" >       84 </v>
   <v type="int" >       85 </v>
   <v type="int" >       86 </v>
   <v type="int" >       87 </v>
   <v type="int" >       88 </v>
   <v type="int" >       89 </v>
   <v type="int" >       90 </v>
   <v type="int" >       91 </v>
   <v type="int" >       92 </v>
   <v type="int" >       93 </v>
   <v type="int" >       94 </v>
   <v type="int" >       95 </v>
   <v type="int" >       96 </v>
   <v type="int" >       97 </v>
   <v type="int" >       98 </v>
   <v type="int" >       99 </v>
   <v type="int" >      100 </v>
   <v type="int" >      101 </v>
   <v type="int" >      102 </v>
   <v type="int" >      103 </v>
   <v type="int" >      104 </v>
   <v type="int" >      105 </v>
   <v type="int" >      106 </v>
   <v type="int" >      107 </v>
   <v type="int" >      108 </v>
   <v type="int" >      109 </v>
   <v type="int" >      110 </v>
   <v type="int" >      111 </v>
   <v type="int" >      112 </v>
   <v type="int" >      113 </v>
   <v type="int" >      114 </v>
   <v type="int" >      115 </v>
   <v type="int" >      116 </v>
   <v type="int" >      117 </v>
   <v type="int" >      118 </v>
   <v type="int" >      119 </v>
   <v type="int" >      120 </v>
   <v type="int" >      121 </v>
   <v type="int" >      122 </v>
   <v type="int" >      123 </v>
   <v type="int" >      124 </v>
   <v type="int" >      125 </v>
   <v type="int" >      126 </v>
   <v type="int" >      127 </v>
   <v type="int" >      128 </v>
  </varray>
 </primitive_cell>
 <kpoints>
  <generation param="Gamma">
   <v type="int" name="divisions">       3        3        3 </v>
   <v name="usershift">      0.00000000       0.00000000       0.00000000 </v>
   <v name="genvec1">      0.33333333       0.00000000      -0.00000000 </v>
   <v name="genvec2">      0.00000000       0.33333333       0.00000000 </v>
   <v name="genvec3">     -0.00000000       0.00000000       0.33333333 </v>
   <v name="shift">      0.00000000       0.00000000       0.00000000 </v>
  </generation>
  <varray name="kpointlist" >
   <v>       0.00000000       0.00000000       0.00000000 </v>
   <v>       0.33333333       0.00000000       0.00000000 </v>
   <v>       0.00000000       0.33333333       0.00000000 </v>
   <v>       0.33333333       0.33333333       0.33333333 </v>
   <v>       0.33333333       0.33333333       0.00000000 </v>
   <v>       0.00000000       0.33333333       0.33333333 </v>
   <v>      -0.33333333       0.33333333       0.00000000 </v>
   <v>       0.00000000      -0.33333333       0.33333333 </v>
   <v>       0.33333333       0.33333333      -0.33333333 </v>
   <v>       0.33333333      -0.33333333      -0.33333333 </v>
  </varray>
  <varray name="weights" >
   <v>       0.03703704 </v>
   <v>       0.07407407 </v>
   <v>       0.14814815 </v>
   <v>       0.07407407 </v>
   <v>       0.14814815 </v>
   <v>       0.07407407 </v>
   <v>       0.14814815 </v>
   <v>       0.07407407 </v>
   <v>       0.14814815 </v>
   <v>       0.07407407 </v>
  </varray>
 </kpoints>
 <parameters>
  <separator name="general" >
   <i type="string" name="SYSTEM">SiGe</i>
   <i type="logical" name="LCOMPAT"> F  </i>
  </separator>
  <separator name="electronic" >
   <i type="string" name="PREC">accura</i>
   <i name="ENMAX">    600.00000000</i>
   <i name="ENAUG">    531.35600000</i>
   <i name="EDIFF">      0.00000001</i>
   <i type="int" name="IALGO">    38</i>
   <i type="int" name="IWAVPR">    10</i>
   <i type="int" name="NBANDS">   704</i>
   <i type="int" name="NBANDSLOW">    -1</i>
   <i type="int" name="NBANDSHIGH">    -1</i>
   <i name="NELECT">   1152.00000000</i>
   <i type="int" name="TURBO">     0</i>
   <i type="int" name="IRESTART">     0</i>
   <i type="int" name="NREBOOT">     0</i>
   <i type="int" name="NMIN">     0</i>
   <i name="EREF">      0.00000000</i>
   <separator name="electronic smearing" >
    <i type="int" name="ISMEAR">     0</i>
    <i name="SIGMA">      0.01000000</i>
    <i name="KSPACING">      0.50000000</i>
    <i type="logical" name="KGAMMA"> T  </i>
    <i type="logical" name="KBLOWUP"> T  </i>
   </separator>
   <separator name="electronic projectors" >
    <i type="logical" name="LREAL"> F  </i>
    <v name="ROPT">      0.00000000      0.00000000</v>
    <i type="int" name="LMAXPAW">  -100</i>
    <i type="int" name="LMAXMIX">     2</i>
    <i type="logical" name="NLSPLINE"> F  </i>
   </separator>
   <separator name="electronic startup" >
    <i type="int" name="ISTART">     0</i>
    <i type="int" name="ICHARG">     2</i>
    <i type="int" name="INIWAV">     1</i>
   </separator>
   <separator name="electronic spin" >
    <i type="int" name="ISPIN">     1</i>
    <i type="logical" name="LNONCOLLINEAR"> F  </i>
    <v name="MAGMOM">      1.00000000      1.00000000      1.00000000      1.00000000      1.00000000      1.00000000      1.00000000      1.00000000      1.00000000      1.00000000      1.00000000      1.00000000      1.00000000      1.00000000      1.00000000      1.00000000      1.00000000      1.00000000      1.00000000      1.00000000
      1.00000000      1.00000000      1.00000000      1.00000000      1.00000000      1.00000000      1.00000000      1.00000000      1.00000000      1.00000000      1.00000000      1.00000000      1.00000000      1.00000000      1.00000000      1.00000000      1.00000000      1.00000000      1.00000000      1.00000000
      1.00000000      1.00000000      1.00000000      1.00000000      1.00000000      1.00000000      1.00000000      1.00000000      1.00000000      1.00000000      1.00000000      1.00000000      1.00000000      1.00000000      1.00000000      1.00000000      1.00000000      1.00000000      1.00000000      1.00000000
      1.00000000      1.00000000      1.00000000      1.00000000      1.00000000      1.00000000      1.00000000      1.00000000      1.00000000      1.00000000      1.00000000      1.00000000      1.00000000      1.00000000      1.00000000      1.00000000      1.00000000      1.00000000      1.00000000      1.00000000
      1.00000000      1.00000000      1.00000000      1.00000000      1.00000000      1.00000000      1.00000000      1.00000000      1.00000000      1.00000000      1.00000000      1.00000000      1.00000000      1.00000000      1.00000000      1.00000000      1.00000000      1.00000000      1.00000000      1.00000000
      1.00000000      1.00000000      1.00000000      1.00000000      1.00000000      1.00000000      1.00000000      1.00000000      1.00000000      1.00000000      1.00000000      1.00000000      1.00000000      1.00000000      1.00000000      1.00000000      1.00000000      1.00000000      1.00000000      1.00000000
      1.00000000      1.00000000      1.00000000      1.00000000      1.00000000      1.00000000      1.00000000      1.00000000</v>
    <i name="NUPDOWN">     -1.00000000</i>
    <i type="logical" name="LSORBIT"> F  </i>
    <v name="SAXIS">      0.00000000      0.00000000      1.00000000</v>
    <i type="logical" name="LSPIRAL"> F  </i>
    <v name="QSPIRAL">      0.00000000      0.00000000      0.00000000</v>
    <i type="logical" name="LZEROZ"> F  </i>
   </separator>
   <separator name="electronic exchange-correlation" >
    <i type="logical" name="LASPH"> F  </i>
   </separator>
   <separator name="electronic convergence" >
    <i type="int" name="NELM">   200</i>
    <i type="int" name="NELMDL">    -5</i>
    <i type="int" name="NELMIN">     2</i>
    <i name="ENINI">    600.00000000</i>
    <separator name="electronic convergence detail" >
     <i type="logical" name="LDIAG"> T  </i>
     <i type="logical" name="LSUBROT"> F  </i>
     <i name="WEIMIN">      0.00000000</i>
     <i name="EBREAK">      0.00000000</i>
     <i name="DEPER">      0.30000000</i>
     <i type="int" name="NRMM">     4</i>
     <i name="TIME">      0.40000000</i>
    </separator>
   </separator>
   <separator name="electronic mixer" >
    <i name="AMIX">      0.40000000</i>
    <i name="BMIX">      1.00000000</i>
    <i name="AMIN">      0.10000000</i>
    <i name="AMIX_MAG">      1.60000000</i>
    <i name="BMIX_MAG">      1.00000000</i>
    <separator name="electronic mixer details" >
     <i type="int" name="IMIX">     4</i>
     <i type="logical" name="MIXFIRST"> F  </i>
     <i type="int" name="MAXMIX">   -45</i>
     <i name="WC">    100.00000000</i>
     <i type="int" name="INIMIX">     1</i>
     <i type="int" name="MIXPRE">     1</i>
     <i type="int" name="MREMOVE">     5</i>
    </separator>
   </separator>
   <separator name="electronic dipolcorrection" >
    <i type="logical" name="LDIPOL"> F  </i>
    <i type="logical" name="LMONO"> F  </i>
    <i type="int" name="IDIPOL">     0</i>
    <i name="EPSILON">      1.00000000</i>
    <v name="DIPOL">   -100.00000000   -100.00000000   -100.00000000</v>
    <i name="EFIELD">      0.00000000</i>
    <i type="logical" name="LVACPOTAV"> F  </i>
   </separator>
  </separator>
  <separator name="grids" >
   <i type="int" name="NGX">   126</i>
   <i type="int" name="NGY">   126</i>
   <i type="int" name="NGZ">   126</i>
   <i type="int" name="NGXF">   252</i>
   <i type="int" name="NGYF">   252</i>
   <i type="int" name="NGZF">   252</i>
   <i type="logical" name="ADDGRID"> F  </i>
  </separator>
  <separator name="ionic" >
   <i type="int" name="NSW">     0</i>
   <i type="int" name="IBRION">    -1</i>
   <i type="int" name="MDALGO">     0</i>
   <i type="int" name="ISIF">     2</i>
   <i name="PSTRESS">      0.00000000</i>
   <i name="EDIFFG">     -0.00002000</i>
   <i type="int" name="NFREE">     0</i>
   <i name="POTIM">      0.50000000</i>
   <i name="SMASS">     -3.00000000</i>
   <i name="SCALEE">      1.00000000</i>
  </separator>
  <separator name="ionic md" >
   <i name="TEBEG">      0.00010000</i>
   <i name="TEEND">      0.00010000</i>
   <i type="int" name="NBLOCK">     1</i>
   <i type="int" name="KBLOCK">     1</i>
   <i type="int" name="NPACO">   256</i>
   <i name="APACO">     10.00000000</i>
  </separator>
  <separator name="symmetry" >
   <i type="int" name="ISYM">     2</i>
   <i name="SYMPREC">      0.00001000</i>
  </separator>
  <separator name="dos" >
   <i type="int" name="LORBIT">     0</i>
   <v name="RWIGS">     -1.00000000     -1.00000000</v>
   <i type="int" name="NEDOS">   301</i>
   <i name="EMIN">     10.00000000</i>
   <i name="EMAX">    -10.00000000</i>
   <i name="EFERMI">      0.00000000</i>
  </separator>
  <separator name="writing" >
   <i type="int" name="NWRITE">     2</i>
   <i type="logical" name="LWAVE"> T  </i>
   <i type="logical" name="LDOWNSAMPLE"> F  </i>
   <i type="logical" name="LCHARG"> T  </i>
   <i type="logical" name="LPARD"> F  </i>
   <i type="logical" name="LVTOT"> F  </i>
   <i type="logical" name="LVHAR"> F  </i>
   <i type="logical" name="LELF"> F  </i>
   <i type="logical" name="LOPTICS"> F  </i>
   <v name="STM">      0.00000000      0.00000000      0.00000000      0.00000000      0.00000000      0.00000000      0.00000000</v>
  </separator>
  <separator name="performance" >
   <i type="int" name="NPAR">    16</i>
   <i type="int" name="NSIM">     4</i>
   <i type="int" name="NBLK">    -1</i>
   <i type="logical" name="LPLANE"> T  </i>
   <i type="logical" name="LSCALAPACK"> T  </i>
   <i type="logical" name="LSCAAWARE"> T  </i>
   <i type="logical" name="LSCALU"> F  </i>
   <i type="logical" name="LASYNC"> F  </i>
   <i type="logical" name="LORBITALREAL"> F  </i>
  </separator>
  <separator name="miscellaneous" >
   <i type="int" name="IDIOT">     3</i>
   <i type="int" name="PHON_NSTRUCT">    -1</i>
   <i type="logical" name="LMUSIC"> F  </i>
   <v name="POMASS">     28.08500000     72.61000000</v>
   <v name="DARWINR">      0.00000000      0.00000000</v>
   <v name="DARWINV">      1.00000000      1.00000000</v>
   <i type="logical" name="LCORR"> T  </i>
  </separator>
  <i type="logical" name="GGA_COMPAT"> T  </i>
  <i type="logical" name="LBERRY"> F  </i>
  <i type="int" name="ICORELEVEL">     0</i>
  <i type="logical" name="LDAU"> F  </i>
  <i type="int" name="I_CONSTRAINED_M">     0</i>
  <separator name="electronic exchange-correlation" >
   <i type="string" name="GGA    ">PE</i>
   <i type="string" name="XC_C">1</i>
   <i type="int" name="VOSKOWN">     0</i>
   <i type="logical" name="LHFCALC"> F  </i>
   <i type="string" name="PRECFOCK"></i>
   <i type="logical" name="LSYMGRAD"> F  </i>
   <i type="logical" name="LHFONE"> F  </i>
   <i type="logical" name="LRHFCALC"> F  </i>
   <i type="logical" name="LTHOMAS"> F  </i>
   <i type="logical" name="LMODELHF"> F  </i>
   <i type="logical" name="LFOCKACE"> F  </i>
   <i name="ENCUT4O">     -1.00000000</i>
   <i type="int" name="EXXOEP">     0</i>
   <i type="int" name="FOURORBIT">     0</i>
   <i name="AEXX">      0.00000000</i>
   <i name="HFALPHA">      0.00000000</i>
   <i name="MCALPHA">      0.00000000</i>
   <i name="ALDAX">      1.00000000</i>
   <i name="AGGAX">      1.00000000</i>
   <i name="AMGGAX">      1.00000000</i>
   <i name="ALDAC">      1.00000000</i>
   <i name="AGGAC">      1.00000000</i>
   <i name="AMGGAC">      1.00000000</i>
   <i type="int" name="NKREDX">     1</i>
   <i type="int" name="NKREDY">     1</i>
   <i type="int" name="NKREDZ">     1</i>
   <i type="logical" name="SHIFTRED"> F  </i>
   <i type="logical" name="ODDONLY"> F  </i>
   <i type="logical" name="EVENONLY"> F  </i>
   <i type="int" name="LMAXFOCK">     0</i>
   <i type="int" name="NMAXFOCKAE">     0</i>
   <i type="logical" name="LFOCKAEDFT"> F  </i>
   <i name="HFSCREEN">      0.00000000</i>
   <i name="HFSCREENC">      0.00000000</i>
   <i type="int" name="NBANDSGWLOW">     0</i>
  </separator>
  <separator name="vdW DFT" >
   <i type="logical" name="LUSE_VDW"> F  </i>
   <i type="int" name="IVDW_NL">    -1</i>
   <i type="logical" name="LSPIN_VDW"> F  </i>
   <i name="ZAB_VDW">     -0.84910000</i>
   <i name="GAMMA_VDW">      1.39626340</i>
   <i name="ALPHA_VDW">      0.00000000</i>
   <i name="PARAM1">      0.12340000</i>
   <i name="PARAM2">      1.00000000</i>
   <i name="BPARAM">      6.30000000</i>
   <i name="CPARAM">      0.00930000</i>
  </separator>
  <separator name="model GW" >
   <i type="int" name="MODEL_GW">     0</i>
   <i name="MODEL_EPS0">     13.15499928</i>
   <i name="MODEL_ALPHA">      1.00000000</i>
  </separator>
  <separator name="linear response parameters" >
   <i type="logical" name="LEPSILON"> F  </i>
   <i type="logical" name="LRPA"> F  </i>
   <i type="logical" name="LNABLA"> F  </i>
   <i type="logical" name="LVEL"> F  </i>
   <i name="CSHIFT">      0.10000000</i>
   <i name="OMEGAMAX">     -1.00000000</i>
   <i name="DEG_THRESHOLD">      0.00200000</i>
   <i name="RTIME">     -0.10000000</i>
   <i name="WPLASMAI">      0.00000000</i>
   <v name="DFIELD">      0.00000000      0.00000000      0.00000000</v>
   <v name="WPLASMA">      0.00000000      0.00000000      0.00000000      0.00000000      0.00000000      0.00000000      0.00000000      0.00000000      0.00000000</v>
  </separator>
  <separator name="orbital magnetization" >
   <i type="logical" name="NUCIND"> F  </i>
   <v name="MAGPOS">      0.00000000      0.00000000      0.00000000</v>
   <i type="logical" name="LNICSALL"> T  </i>
   <i type="logical" name="ORBITALMAG"> F  </i>
   <i type="logical" name="LMAGBLOCH"> F  </i>
   <i type="logical" name="LCHIMAG"> F  </i>
   <i type="logical" name="LGAUGE"> T  </i>
   <i type="int" name="MAGATOM">     0</i>
   <v name="MAGDIPOL">      0.00000000      0.00000000      0.00000000</v>
   <v name="AVECCONST">      0.00000000      0.00000000      0.00000000</v>
  </separator>
  <separator name="response functions" >
   <i type="logical" name="LALL_IN_ONE"> F  </i>
   <i type="int" name="IALL_IN_ONE">    -1</i>
   <i type="int" name="NBANDS_WAVE">    -1</i>
   <i type="logical" name="LFINITE_TEMPERATURE"> F  </i>
   <i type="logical" name="LADDER"> F  </i>
   <i type="logical" name="LRPAFORCE"> F  </i>
   <i type="logical" name="LFXC"> F  </i>
   <i type="logical" name="LHARTREE"> T  </i>
   <i type="int" name="IBSE">     0</i>
   <v type="int" name="KPOINT">    -1     0     0     0</v>
   <i type="logical" name="LTCTC"> F  </i>
   <i type="logical" name="LTCTE"> F  </i>
   <i type="logical" name="LTETE"> F  </i>
   <i type="logical" name="LTRIPLET"> F  </i>
   <i type="logical" name="LFXCEPS"> F  </i>
   <i type="logical" name="LFXHEG"> F  </i>
   <i type="int" name="NATURALO">     2</i>
   <i type="logical" name="LHOLEGF"> F  </i>
   <i type="logical" name="L2ORDER"> F  </i>
   <i type="logical" name="LDMP1"> F  </i>
   <i type="logical" name="LMP2LT"> F  </i>
   <i type="logical" name="LSMP2LT"> F  </i>
   <i type="logical" name="LGWLF"> F  </i>
   <i name="ENCUTGW">     -1.60000002</i>
   <i name="ENCUTGWSOFT">     -1.60000002</i>
   <i name="ENCUTLF">     -1.00000000</i>
   <i type="logical" name="ESF_SPLINES"> F  </i>
   <i name="ESF_CONV">      0.01000000</i>
   <i type="int" name="ESF_NINTER">    15</i>
   <i type="int" name="LMAXMP2">    -1</i>
   <i name="SCISSOR">      0.00000000</i>
   <i type="int" name="NOMEGA">     0</i>
   <i type="int" name="NOMEGAR">     0</i>
   <i type="int" name="NBANDSGW">    -1</i>
   <i type="int" name="NBANDSO">    -1</i>
   <i type="int" name="NBANDSV">    -1</i>
   <i type="int" name="NELMGW">     1</i>
   <i type="int" name="NELMHF">     1</i>
   <i type="int" name="DIM">     3</i>
   <i type="int" name="IESPILON">     4</i>
   <i type="int" name="ANTIRES">     0</i>
   <i name="OMEGAMAX">    -30.00000000</i>
   <i name="OMEGAMIN">    -30.00000000</i>
   <i name="OMEGATL">   -200.00000000</i>
   <i type="int" name="OMEGAGRID">     0</i>
   <i name="CSHIFT">     -0.10000000</i>
   <i type="logical" name="LSELFENERGY"> F  </i>
   <i type="logical" name="LSPECTRAL"> F  </i>
   <i type="logical" name="LSPECTRALGW"> F  </i>
   <i type="logical" name="LSINGLES"> F  </i>
   <i type="logical" name="LFERMIGW"> F  </i>
   <i type="logical" name="ODDONLYGW"> F  </i>
   <i type="logical" name="EVENONLYGW"> F  </i>
   <i type="int" name="NKREDLFX">     1</i>
   <i type="int" name="NKREDLFY">     1</i>
   <i type="int" name="NKREDLFZ">     1</i>
   <i type="int" name="MAXMEM">  2800</i>
   <i type="int" name="TELESCOPE">     0</i>
   <i type="int" name="NTAUPAR">    -1</i>
   <i type="int" name="NOMEGAPAR">    -1</i>
   <i name="DAMP_NEWTON">      0.80000001</i>
   <i name="LAMBDA">      1.00000000</i>
  </separator>
  <separator name="External order field" >
   <i name="OFIELD_KAPPA">      0.00000000</i>
   <v name="OFIELD_K">      0.00000000      0.00000000      0.00000000</v>
   <i name="OFIELD_Q6_NEAR">      0.00000000</i>
   <i name="OFIELD_Q6_FAR">      0.00000000</i>
   <i name="OFIELD_A">      0.00000000</i>
  </separator>
  <separator name="optional k-points parameters" >
   <i type="int" name="KPOINTS_OPT_MODE">     1</i>
   <i type="logical" name="LKPOINTS_OPT"> F  </i>
  </separator>
 </parameters>
 <atominfo>
  <atoms>     128 </atoms>
  <types>       2 </types>
  <array name="atoms" >
   <dimension dim="1">ion</dimension>
   <field type="string">element</field>
   <field type="int">atomtype</field>
   <set>
    <rc><c>Si</c><c>   1</c></rc>
    <rc><c>Si</c><c>   1</c></rc>
    <rc><c>Si</c><c>   1</c></rc>
    <rc><c>Si</c><c>   1</c></rc>
    <rc><c>Si</c><c>   1</c></rc>
    <rc><c>Si</c><c>   1</c></rc>
    <rc><c>Si</c><c>   1</c></rc>
    <rc><c>Si</c><c>   1</c></rc>
    <rc><c>Si</c><c>   1</c></rc>
    <rc><c>Si</c><c>   1</c></rc>
    <rc><c>Si</c><c>   1</c></rc>
    <rc><c>Si</c><c>   1</c></rc>
    <rc><c>Si</c><c>   1</c></rc>
    <rc><c>Si</c><c>   1</c></rc>
    <rc><c>Si</c><c>   1</c></rc>
    <rc><c>Si</c><c>   1</c></rc>
    <rc><c>Si</c><c>   1</c></rc>
    <rc><c>Si</c><c>   1</c></rc>
    <rc><c>Si</c><c>   1</c></rc>
    <rc><c>Si</c><c>   1</c></rc>
    <rc><c>Si</c><c>   1</c></rc>
    <rc><c>Si</c><c>   1</c></rc>
    <rc><c>Si</c><c>   1</c></rc>
    <rc><c>Si</c><c>   1</c></rc>
    <rc><c>Si</c><c>   1</c></rc>
    <rc><c>Si</c><c>   1</c></rc>
    <rc><c>Si</c><c>   1</c></rc>
    <rc><c>Si</c><c>   1</c></rc>
    <rc><c>Si</c><c>   1</c></rc>
    <rc><c>Si</c><c>   1</c></rc>
    <rc><c>Si</c><c>   1</c></rc>
    <rc><c>Si</c><c>   1</c></rc>
    <rc><c>Si</c><c>   1</c></rc>
    <rc><c>Si</c><c>   1</c></rc>
    <rc><c>Si</c><c>   1</c></rc>
    <rc><c>Si</c><c>   1</c></rc>
    <rc><c>Si</c><c>   1</c></rc>
    <rc><c>Si</c><c>   1</c></rc>
    <rc><c>Si</c><c>   1</c></rc>
    <rc><c>Si</c><c>   1</c></rc>
    <rc><c>Si</c><c>   1</c></rc>
    <rc><c>Si</c><c>   1</c></rc>
    <rc><c>Si</c><c>   1</c></rc>
    <rc><c>Si</c><c>   1</c></rc>
    <rc><c>Si</c><c>   1</c></rc>
    <rc><c>Si</c><c>   1</c></rc>
    <rc><c>Si</c><c>   1</c></rc>
    <rc><c>Si</c><c>   1</c></rc>
    <rc><c>Si</c><c>   1</c></rc>
    <rc><c>Si</c><c>   1</c></rc>
    <rc><c>Si</c><c>   1</c></rc>
    <rc><c>Si</c><c>   1</c></rc>
    <rc><c>Si</c><c>   1</c></rc>
    <rc><c>Si</c><c>   1</c></rc>
    <rc><c>Si</c><c>   1</c></rc>
    <rc><c>Si</c><c>   1</c></rc>
    <rc><c>Si</c><c>   1</c></rc>
    <rc><c>Si</c><c>   1</c></rc>
    <rc><c>Si</c><c>   1</c></rc>
    <rc><c>Si</c><c>   1</c></rc>
    <rc><c>Si</c><c>   1</c></rc>
    <rc><c>Si</c><c>   1</c></rc>
    <rc><c>Si</c><c>   1</c></rc>
    <rc><c>Si</c><c>   1</c></rc>
    <rc><c>Ge</c><c>   2</c></rc>
    <rc><c>Ge</c><c>   2</c></rc>
    <rc><c>Ge</c><c>   2</c></rc>
    <rc><c>Ge</c><c>   2</c></rc>
    <rc><c>Ge</c><c>   2</c></rc>
    <rc><c>Ge</c><c>   2</c></rc>
    <rc><c>Ge</c><c>   2</c></rc>
    <rc><c>Ge</c><c>   2</c></rc>
    <rc><c>Ge</c><c>   2</c></rc>
    <rc><c>Ge</c><c>   2</c></rc>
    <rc><c>Ge</c><c>   2</c></rc>
    <rc><c>Ge</c><c>   2</c></rc>
    <rc><c>Ge</c><c>   2</c></rc>
    <rc><c>Ge</c><c>   2</c></rc>
    <rc><c>Ge</c><c>   2</c></rc>
    <rc><c>Ge</c><c>   2</c></rc>
    <rc><c>Ge</c><c>   2</c></rc>
    <rc><c>Ge</c><c>   2</c></rc>
    <rc><c>Ge</c><c>   2</c></rc>
    <rc><c>Ge</c><c>   2</c></rc>
    <rc><c>Ge</c><c>   2</c></rc>
    <rc><c>Ge</c><c>   2</c></rc>
    <rc><c>Ge</c><c>   2</c></rc>
    <rc><c>Ge</c><c>   2</c></rc>
    <rc><c>Ge</c><c>   2</c></rc>
    <rc><c>Ge</c><c>   2</c></rc>
    <rc><c>Ge</c><c>   2</c></rc>
    <rc><c>Ge</c><c>   2</c></rc>
    <rc><c>Ge</c><c>   2</c></rc>
    <rc><c>Ge</c><c>   2</c></rc>
    <rc><c>Ge</c><c>   2</c></rc>
    <rc><c>Ge</c><c>   2</c></rc>
    <rc><c>Ge</c><c>   2</c></rc>
    <rc><c>Ge</c><c>   2</c></rc>
    <rc><c>Ge</c><c>   2</c></rc>
    <rc><c>Ge</c><c>   2</c></rc>
    <rc><c>Ge</c><c>   2</c></rc>
    <rc><c>Ge</c><c>   2</c></rc>
    <rc><c>Ge</c><c>   2</c></rc>
    <rc><c>Ge</c><c>   2</c></rc>
    <rc><c>Ge</c><c>   2</c></rc>
    <rc><c>Ge</c><c>   2</c></rc>
    <rc><c>Ge</c><c>   2</c></rc>
    <rc><c>Ge</c><c>   2</c></rc>
    <rc><c>Ge</c><c>   2</c></rc>
    <rc><c>Ge</c><c>   2</c></rc>
    <rc><c>Ge</c><c>   2</c></rc>
    <rc><c>Ge</c><c>   2</c></rc>
    <rc><c>Ge</c><c>   2</c></rc>
    <rc><c>Ge</c><c>   2</c></rc>
    <rc><c>Ge</c><c>   2</c></rc>
    <rc><c>Ge</c><c>   2</c></rc>
    <rc><c>Ge</c><c>   2</c></rc>
    <rc><c>Ge</c><c>   2</c></rc>
    <rc><c>Ge</c><c>   2</c></rc>
    <rc><c>Ge</c><c>   2</c></rc>
    <rc><c>Ge</c><c>   2</c></rc>
    <rc><c>Ge</c><c>   2</c></rc>
    <rc><c>Ge</c><c>   2</c></rc>
    <rc><c>Ge</c><c>   2</c></rc>
    <rc><c>Ge</c><c>   2</c></rc>
    <rc><c>Ge</c><c>   2</c></rc>
    <rc><c>Ge</c><c>   2</c></rc>
    <rc><c>Ge</c><c>   2</c></rc>
   </set>
  </array>
  <array name="atomtypes" >
   <dimension dim="1">type</dimension>
   <field type="int">atomspertype</field>
   <field type="string">element</field>
   <field>mass</field>
   <field>valence</field>
   <field type="string">pseudopotential</field>
   <set>
    <rc><c>  64</c><c>Si</c><c>     28.08500000</c><c>      4.00000000</c><c>  PAW_PBE Si 05Jan2001                  </c></rc>
    <rc><c>  64</c><c>Ge</c><c>     72.61000000</c><c>     14.00000000</c><c>  PAW_PBE Ge_d 03Jul2007                </c></rc>
   </set>
  </array>
 </atominfo>
 <structure name="initialpos" >
  <crystal>
   <varray name="basis" >
    <v>      -0.00000000      11.19540607      11.19540607 </v>
    <v>      11.19540607      -0.00000000      11.19540607 </v>
    <v>      11.19540607      11.19540607       0.00000000 </v>
   </varray>
   <i name="volume">   2806.39984618 </i>
   <varray name="rec_basis" >
    <v>      -0.04466118       0.04466118       0.04466118 </v>
    <v>       0.04466118      -0.04466118       0.04466118 </v>
    <v>       0.04466118       0.04466118      -0.04466118 </v>
   </varray>
  </crystal>
  <varray name="positions" >
   <v>       0.00063160       0.00000000       0.00000000 </v>
   <v>       0.25000000       0.00000000       0.00000000 </v>
   <v>       0.50000000       0.00000000       0.00000000 </v>
   <v>       0.75000000       0.00000000       0.00000000 </v>
   <v>       0.00000000       0.25000000       0.00000000 </v>
   <v>       0.25000000       0.25000000       0.00000000 </v>
   <v>       0.50000000       0.25000000       0.00000000 </v>
   <v>       0.75000000       0.25000000       0.00000000 </v>
   <v>       0.00000000       0.50000000       0.00000000 </v>
   <v>       0.25000000       0.50000000       0.00000000 </v>
   <v>       0.50000000       0.50000000       0.00000000 </v>
   <v>       0.75000000       0.50000000       0.00000000 </v>
   <v>       0.00000000       0.75000000       0.00000000 </v>
   <v>       0.25000000       0.75000000       0.00000000 </v>
   <v>       0.50000000       0.75000000       0.00000000 </v>
   <v>       0.75000000       0.75000000       0.00000000 </v>
   <v>       0.00000000       0.00000000       0.25000000 </v>
   <v>       0.25000000       0.00000000       0.25000000 </v>
   <v>       0.50000000       0.00000000       0.25000000 </v>
   <v>       0.75000000       0.00000000       0.25000000 </v>
   <v>       0.00000000       0.25000000       0.25000000 </v>
   <v>       0.25000000       0.25000000       0.25000000 </v>
   <v>       0.50000000       0.25000000       0.25000000 </v>
   <v>       0.75000000       0.25000000       0.25000000 </v>
   <v>       0.00000000       0.50000000       0.25000000 </v>
   <v>       0.25000000       0.50000000       0.25000000 </v>
   <v>       0.50000000       0.50000000       0.25000000 </v>
   <v>       0.75000000       0.50000000       0.25000000 </v>
   <v>       0.00000000       0.75000000       0.25000000 </v>
   <v>       0.25000000       0.75000000       0.25000000 </v>
   <v>       0.50000000       0.75000000       0.25000000 </v>
   <v>       0.75000000       0.75000000       0.25000000 </v>
   <v>       0.00000000       0.00000000       0.50000000 </v>
   <v>       0.25000000       0.00000000       0.50000000 </v>
   <v>       0.50000000       0.00000000       0.50000000 </v>
   <v>       0.75000000       0.00000000       0.50000000 </v>
   <v>       0.00000000       0.25000000       0.50000000 </v>
   <v>       0.25000000       0.25000000       0.50000000 </v>
   <v>       0.50000000       0.25000000       0.50000000 </v>
   <v>       0.75000000       0.25000000       0.50000000 </v>
   <v>       0.00000000       0.50000000       0.50000000 </v>
   <v>       0.25000000       0.50000000       0.50000000 </v>
   <v>       0.50000000       0.50000000       0.50000000 </v>
   <v>       0.75000000       0.50000000       0.50000000 </v>
   <v>       0.00000000       0.75000000       0.50000000 </v>
   <v>       0.25000000       0.75000000       0.50000000 </v>
   <v>       0.50000000       0.75000000       0.50000000 </v>
   <v>       0.75000000       0.75000000       0.50000000 </v>
   <v>       0.00000000       0.00000000       0.75000000 </v>
   <v>       0.25000000       0.00000000       0.75000000 </v>
   <v>       0.50000000       0.00000000       0.75000000 </v>
   <v>       0.75000000       0.00000000       0.75000000 </v>
   <v>       0.00000000       0.25000000       0.75000000 </v>
   <v>       0.25000000       0.25000000       0.75000000 </v>
   <v>       0.50000000       0.25000000       0.75000000 </v>
   <v>       0.75000000       0.25000000       0.75000000 </v>
   <v>       0.00000000       0.50000000       0.75000000 </v>
   <v>       0.25000000       0.50000000       0.75000000 </v>
   <v>       0.50000000       0.50000000       0.75000000 </v>
   <v>       0.75000000       0.50000000       0.75000000 </v>
   <v>       0.00000000       0.75000000       0.75000000 </v>
   <v>       0.25000000       0.75000000       0.75000000 </v>
   <v>       0.50000000       0.75000000       0.75000000 </v>
   <v>       0.75000000       0.75000000       0.75000000 </v>
   <v>       0.18750000       0.18750000       0.18750000 </v>
   <v>       0.43750000       0.18750000       0.18750000 </v>
   <v>       0.68750000       0.18750000       0.18750000 </v>
   <v>       0.93750000       0.18750000       0.18750000 </v>
   <v>       0.18750000       0.43750000       0.18750000 </v>
   <v>       0.43750000       0.43750000       0.18750000 </v>
   <v>       0.68750000       0.43750000       0.18750000 </v>
   <v>       0.93750000       0.43750000       0.18750000 </v>
   <v>       0.18750000       0.68750000       0.18750000 </v>
   <v>       0.43750000       0.68750000       0.18750000 </v>
   <v>       0.68750000       0.68750000       0.18750000 </v>
   <v>       0.93750000       0.68750000       0.18750000 </v>
   <v>       0.18750000       0.93750000       0.18750000 </v>
   <v>       0.43750000       0.93750000       0.18750000 </v>
   <v>       0.68750000       0.93750000       0.18750000 </v>
   <v>       0.93750000       0.93750000       0.18750000 </v>
   <v>       0.18750000       0.18750000       0.43750000 </v>
   <v>       0.43750000       0.18750000       0.43750000 </v>
   <v>       0.68750000       0.18750000       0.43750000 </v>
   <v>       0.93750000       0.18750000       0.43750000 </v>
   <v>       0.18750000       0.43750000       0.43750000 </v>
   <v>       0.43750000       0.43750000       0.43750000 </v>
   <v>       0.68750000       0.43750000       0.43750000 </v>
   <v>       0.93750000       0.43750000       0.43750000 </v>
   <v>       0.18750000       0.68750000       0.43750000 </v>
   <v>       0.43750000       0.68750000       0.43750000 </v>
   <v>       0.68750000       0.68750000       0.43750000 </v>
   <v>       0.93750000       0.68750000       0.43750000 </v>
   <v>       0.18750000       0.93750000       0.43750000 </v>
   <v>       0.43750000       0.93750000       0.43750000 </v>
   <v>       0.68750000       0.93750000       0.43750000 </v>
   <v>       0.93750000       0.93750000       0.43750000 </v>
   <v>       0.18750000       0.18750000       0.68750000 </v>
   <v>       0.43750000       0.18750000       0.68750000 </v>
   <v>       0.68750000       0.18750000       0.68750000 </v>
   <v>       0.93750000       0.18750000       0.68750000 </v>
   <v>       0.18750000       0.43750000       0.68750000 </v>
   <v>       0.43750000       0.43750000       0.68750000 </v>
   <v>       0.68750000       0.43750000       0.68750000 </v>
   <v>       0.93750000       0.43750000       0.68750000 </v>
   <v>       0.18750000       0.68750000       0.68750000 </v>
   <v>       0.43750000       0.68750000       0.68750000 </v>
   <v>       0.68750000       0.68750000       0.68750000 </v>
   <v>       0.93750000       0.68750000       0.68750000 </v>
   <v>       0.18750000       0.93750000       0.68750000 </v>
   <v>       0.43750000       0.93750000       0.68750000 </v>
   <v>       0.68750000       0.93750000       0.68750000 </v>
   <v>       0.93750000       0.93750000       0.68750000 </v>
   <v>       0.18750000       0.18750000       0.93750000 </v>
   <v>       0.43750000       0.18750000       0.93750000 </v>
   <v>       0.68750000       0.18750000       0.93750000 </v>
   <v>       0.93750000       0.18750000       0.93750000 </v>
   <v>       0.18750000       0.43750000       0.93750000 </v>
   <v>       0.43750000       0.43750000       0.93750000 </v>
   <v>       0.68750000       0.43750000       0.93750000 </v>
   <v>       0.93750000       0.43750000       0.93750000 </v>
   <v>       0.18750000       0.68750000       0.93750000 </v>
   <v>       0.43750000       0.68750000       0.93750000 </v>
   <v>       0.68750000       0.68750000       0.93750000 </v>
   <v>       0.93750000       0.68750000       0.93750000 </v>
   <v>       0.18750000       0.93750000       0.93750000 </v>
   <v>       0.43750000       0.93750000       0.93750000 </v>
   <v>       0.68750000       0.93750000       0.93750000 </v>
   <v>       0.93750000       0.93750000       0.93750000 </v>
  </varray>
 </structure>
 <calculation>
  <scstep>
   <time name="dav">   57.43   57.69</time>
   <time name="total">   57.68   57.96</time>
   <energy>
    <i name="alphaZ">   2970.02515869 </i>
    <i name="ewald"> -87406.17190952 </i>
    <i name="hartreedc"> -53633.26839162 </i>
    <i name="XCdc">   4074.08040134 </i>
    <i name="pawpsdc"> 123183.33653208 </i>
    <i name="pawaedc">-149894.99457999 </i>
    <i name="eentropy">     -0.00127099 </i>
    <i name="bandstr">   8571.24532379 </i>
    <i name="atom"> 172755.47663999 </i>
    <i name="e_fr_energy">  20619.72790376 </i>
    <i name="e_wo_entrp">  20619.72917475 </i>
    <i name="e_0_energy">  20619.72853925 </i>
   </energy>
  </scstep>
  <scstep>
   <time name="dav">   51.27   51.54</time>
   <time name="total">   51.28   51.54</time>
   <energy>
    <i name="e_fr_energy">   4062.98935527 </i>
    <i name="e_wo_entrp">   4062.99165070 </i>
    <i name="e_0_energy">   4062.99050299 </i>
   </energy>
  </scstep>
  <scstep>
   <time name="dav">   51.37   51.64</time>
   <time name="total">   51.38   51.64</time>
   <energy>
    <i name="e_fr_energy">    110.32642395 </i>
    <i name="e_wo_entrp">    110.32843799 </i>
    <i name="e_0_energy">    110.32743097 </i>
   </energy>
  </scstep>
  <scstep>
   <time name="dav">   58.37   58.63</time>
   <time name="total">   58.37   58.63</time>
   <energy>
    <i name="e_fr_energy">   -588.62732572 </i>
    <i name="e_wo_entrp">   -588.62732572 </i>
    <i name="e_0_energy">   -588.62732572 </i>
   </energy>
  </scstep>
  <scstep>
   <time name="dav">   57.37   57.62</time>
   <time name="total">   59.14   59.41</time>
   <energy>
    <i name="e_fr_energy">   -638.39481680 </i>
    <i name="e_wo_entrp">   -638.39481680 </i>
    <i name="e_0_energy">   -638.39481680 </i>
   </energy>
  </scstep>
  <scstep>
   <time name="dav">   62.40   62.68</time>
   <time name="total">   64.41   64.70</time>
   <energy>
    <i name="e_fr_energy">   -635.46093159 </i>
    <i name="e_wo_entrp">   -635.46093159 </i>
    <i name="e_0_energy">   -635.46093159 </i>
   </energy>
  </scstep>
  <scstep>
   <time name="dav">   60.80   61.07</time>
   <time name="total">   62.79   63.08</time>
   <energy>
    <i name="e_fr_energy">   -633.05783635 </i>
    <i name="e_wo_entrp">   -633.05783635 </i>
    <i name="e_0_energy">   -633.05783635 </i>
   </energy>
  </scstep>
  <scstep>
   <time name="dav">   65.22   65.51</time>
   <time name="total">   67.22   67.53</time>
   <energy>
    <i name="e_fr_energy">   -633.16308759 </i>
    <i name="e_wo_entrp">   -633.16308759 </i>
    <i name="e_0_energy">   -633.16308759 </i>
   </energy>
  </scstep>
  <scstep>
   <time name="dav">   59.80   60.06</time>
   <time name="total">   61.80   62.08</time>
   <energy>
    <i name="e_fr_energy">   -633.19389728 </i>
    <i name="e_wo_entrp">   -633.19389728 </i>
    <i name="e_0_energy">   -633.19389728 </i>
   </energy>
  </scstep>
  <scstep>
   <time name="dav">   56.62   56.87</time>
   <time name="total">   58.62   58.88</time>
   <energy>
    <i name="e_fr_energy">   -633.20115422 </i>
    <i name="e_wo_entrp">   -633.20115422 </i>
    <i name="e_0_energy">   -633.20115422 </i>
   </energy>
  </scstep>
  <scstep>
   <time name="dav">   57.57   57.83</time>
   <time name="total">   59.59   59.86</time>
   <energy>
    <i name="e_fr_energy">   -633.20256637 </i>
    <i name="e_wo_entrp">   -633.20256637 </i>
    <i name="e_0_energy">   -633.20256637 </i>
   </energy>
  </scstep>
  <scstep>
   <time name="dav">   58.02   58.28</time>
   <time name="total">   60.04   60.30</time>
   <energy>
    <i name="e_fr_energy">   -633.20272870 </i>
    <i name="e_wo_entrp">   -633.20272870 </i>
    <i name="e_0_energy">   -633.20272870 </i>
   </energy>
  </scstep>
  <scstep>
   <time name="dav">   62.11   62.38</time>
   <time name="total">   64.12   64.41</time>
   <energy>
    <i name="e_fr_energy">   -633.20277688 </i>
    <i name="e_wo_entrp">   -633.20277688 </i>
    <i name="e_0_energy">   -633.20277688 </i>
   </energy>
  </scstep>
  <scstep>
   <time name="dav">   61.88   62.16</time>
   <time name="total">   63.90   64.19</time>
   <energy>
    <i name="e_fr_energy">   -633.20278656 </i>
    <i name="e_wo_entrp">   -633.20278656 </i>
    <i name="e_0_energy">   -633.20278656 </i>
   </energy>
  </scstep>
  <scstep>
   <time name="dav">   62.14   62.41</time>
   <time name="total">   64.16   64.45</time>
   <energy>
    <i name="e_fr_energy">   -633.20278925 </i>
    <i name="e_wo_entrp">   -633.20278925 </i>
    <i name="e_0_energy">   -633.20278925 </i>
   </energy>
  </scstep>
  <scstep>
   <time name="dav">   58.52   58.78</time>
   <time name="total">   60.54   60.82</time>
   <energy>
    <i name="e_fr_energy">   -633.20278950 </i>
    <i name="e_wo_entrp">   -633.20278950 </i>
    <i name="e_0_energy">   -633.20278950 </i>
   </energy>
  </scstep>
  <scstep>
   <time name="dav">   51.32   51.55</time>
   <time name="total">   53.34   53.58</time>
   <energy>
    <i name="e_fr_energy">   -633.20278941 </i>
    <i name="e_wo_entrp">   -633.20278941 </i>
    <i name="e_0_energy">   -633.20278941 </i>
   </energy>
  </scstep>
  <scstep>
   <time name="dav">   75.30   75.64</time>
   <time name="total">   77.33   77.67</time>
   <energy>
    <i name="e_fr_energy">   -633.20278940 </i>
    <i name="e_wo_entrp">   -633.20278940 </i>
    <i name="e_0_energy">   -633.20278940 </i>
   </energy>
  </scstep>
  <scstep>
   <time name="dav">   50.16   50.38</time>
   <time name="total">   52.19   52.42</time>
   <energy>
    <i name="e_fr_energy">   -633.20278947 </i>
    <i name="e_wo_entrp">   -633.20278947 </i>
    <i name="e_0_energy">   -633.20278947 </i>
   </energy>
  </scstep>
  <scstep>
   <time name="dav">   39.56   39.73</time>
   <time name="total">   39.80   39.98</time>
   <energy>
    <i name="alphaZ">   2970.02515869 </i>
    <i name="ewald"> -87406.17190952 </i>
    <i name="hartreedc"> -53752.73153752 </i>
    <i name="XCdc">   4081.03409081 </i>
    <i name="pawpsdc"> 169351.27420071 </i>
    <i name="pawaedc">-196259.08035166 </i>
    <i name="eentropy">     -0.00000000 </i>
    <i name="bandstr"> -12373.02908097 </i>
    <i name="atom"> 172755.47663999 </i>
    <i name="e_fr_energy">   -633.20278948 </i>
    <i name="e_wo_entrp">   -633.20278948 </i>
    <i name="e_0_energy">   -633.20278948 </i>
   </energy>
  </scstep>
  <structure>
   <crystal>
    <varray name="basis" >
     <v>      -0.00000000      11.19540607      11.19540607 </v>
     <v>      11.19540607      -0.00000000      11.19540607 </v>
     <v>      11.19540607      11.19540607       0.00000000 </v>
    </varray>
    <i name="volume">   2806.39984618 </i>
    <varray name="rec_basis" >
     <v>      -0.04466118       0.04466118       0.04466118 </v>
     <v>       0.04466118      -0.04466118       0.04466118 </v>
     <v>       0.04466118       0.04466118      -0.04466118 </v>
    </varray>
   </crystal>
   <varray name="positions" >
    <v>       0.00063160       0.00000000       0.00000000 </v>
    <v>       0.25000000       0.00000000       0.00000000 </v>
    <v>       0.50000000       0.00000000       0.00000000 </v>
    <v>       0.75000000       0.00000000       0.00000000 </v>
    <v>       0.00000000       0.25000000       0.00000000 </v>
    <v>       0.25000000       0.25000000       0.00000000 </v>
    <v>       0.50000000       0.25000000       0.00000000 </v>
    <v>       0.75000000       0.25000000       0.00000000 </v>
    <v>       0.00000000       0.50000000       0.00000000 </v>
    <v>       0.25000000       0.50000000       0.00000000 </v>
    <v>       0.50000000       0.50000000       0.00000000 </v>
    <v>       0.75000000       0.50000000       0.00000000 </v>
    <v>       0.00000000       0.75000000       0.00000000 </v>
    <v>       0.25000000       0.75000000       0.00000000 </v>
    <v>       0.50000000       0.75000000       0.00000000 </v>
    <v>       0.75000000       0.75000000       0.00000000 </v>
    <v>       0.00000000       0.00000000       0.25000000 </v>
    <v>       0.25000000       0.00000000       0.25000000 </v>
    <v>       0.50000000       0.00000000       0.25000000 </v>
    <v>       0.75000000       0.00000000       0.25000000 </v>
    <v>       0.00000000       0.25000000       0.25000000 </v>
    <v>       0.25000000       0.25000000       0.25000000 </v>
    <v>       0.50000000       0.25000000       0.25000000 </v>
    <v>       0.75000000       0.25000000       0.25000000 </v>
    <v>       0.00000000       0.50000000       0.25000000 </v>
    <v>       0.25000000       0.50000000       0.25000000 </v>
    <v>       0.50000000       0.50000000       0.25000000 </v>
    <v>       0.75000000       0.50000000       0.25000000 </v>
    <v>       0.00000000       0.75000000       0.25000000 </v>
    <v>       0.25000000       0.75000000       0.25000000 </v>
    <v>       0.50000000       0.75000000       0.25000000 </v>
    <v>       0.75000000       0.75000000       0.25000000 </v>
    <v>       0.00000000       0.00000000       0.50000000 </v>
    <v>       0.25000000       0.00000000       0.50000000 </v>
    <v>       0.50000000       0.00000000       0.50000000 </v>
    <v>       0.75000000       0.00000000       0.50000000 </v>
    <v>       0.00000000       0.25000000       0.50000000 </v>
    <v>       0.25000000       0.25000000       0.50000000 </v>
    <v>       0.50000000       0.25000000       0.50000000 </v>
    <v>       0.75000000       0.25000000       0.50000000 </v>
    <v>       0.00000000       0.50000000       0.50000000 </v>
    <v>       0.25000000       0.50000000       0.50000000 </v>
    <v>       0.50000000       0.50000000       0.50000000 </v>
    <v>       0.75000000       0.50000000       0.50000000 </v>
    <v>       0.00000000       0.75000000       0.50000000 </v>
    <v>       0.25000000       0.75000000       0.50000000 </v>
    <v>       0.50000000       0.75000000       0.50000000 </v>
    <v>       0.75000000       0.75000000       0.50000000 </v>
    <v>       0.00000000       0.00000000       0.75000000 </v>
    <v>       0.25000000       0.00000000       0.75000000 </v>
    <v>       0.50000000       0.00000000       0.75000000 </v>
    <v>       0.75000000       0.00000000       0.75000000 </v>
    <v>       0.00000000       0.25000000       0.75000000 </v>
    <v>       0.25000000       0.25000000       0.75000000 </v>
    <v>       0.50000000       0.25000000       0.75000000 </v>
    <v>       0.75000000       0.25000000       0.75000000 </v>
    <v>       0.00000000       0.50000000       0.75000000 </v>
    <v>       0.25000000       0.50000000       0.75000000 </v>
    <v>       0.50000000       0.50000000       0.75000000 </v>
    <v>       0.75000000       0.50000000       0.75000000 </v>
    <v>       0.00000000       0.75000000       0.75000000 </v>
    <v>       0.25000000       0.75000000       0.75000000 </v>
    <v>       0.50000000       0.75000000       0.75000000 </v>
    <v>       0.75000000       0.75000000       0.75000000 </v>
    <v>       0.18750000       0.18750000       0.18750000 </v>
    <v>       0.43750000       0.18750000       0.18750000 </v>
    <v>       0.68750000       0.18750000       0.18750000 </v>
    <v>       0.93750000       0.18750000       0.18750000 </v>
    <v>       0.18750000       0.43750000       0.18750000 </v>
    <v>       0.43750000       0.43750000       0.18750000 </v>
    <v>       0.68750000       0.43750000       0.18750000 </v>
    <v>       0.93750000       0.43750000       0.18750000 </v>
    <v>       0.18750000       0.68750000       0.18750000 </v>
    <v>       0.43750000       0.68750000       0.18750000 </v>
    <v>       0.68750000       0.68750000       0.18750000 </v>
    <v>       0.93750000       0.68750000       0.18750000 </v>
    <v>       0.18750000       0.93750000       0.18750000 </v>
    <v>       0.43750000       0.93750000       0.18750000 </v>
    <v>       0.68750000       0.93750000       0.18750000 </v>
    <v>       0.93750000       0.93750000       0.18750000 </v>
    <v>       0.18750000       0.18750000       0.43750000 </v>
    <v>       0.43750000       0.18750000       0.43750000 </v>
    <v>       0.68750000       0.18750000       0.43750000 </v>
    <v>       0.93750000       0.18750000       0.43750000 </v>
    <v>       0.18750000       0.43750000       0.43750000 </v>
    <v>       0.43750000       0.43750000       0.43750000 </v>
    <v>       0.68750000       0.43750000       0.43750000 </v>
    <v>       0.93750000       0.43750000       0.43750000 </v>
    <v>       0.18750000       0.68750000       0.43750000 </v>
    <v>       0.43750000       0.68750000       0.43750000 </v>
    <v>       0.68750000       0.68750000       0.43750000 </v>
    <v>       0.93750000       0.68750000       0.43750000 </v>
    <v>       0.18750000       0.93750000       0.43750000 </v>
    <v>       0.43750000       0.93750000       0.43750000 </v>
    <v>       0.68750000       0.93750000       0.43750000 </v>
    <v>       0.93750000       0.93750000       0.43750000 </v>
    <v>       0.18750000       0.18750000       0.68750000 </v>
    <v>       0.43750000       0.18750000       0.68750000 </v>
    <v>       0.68750000       0.18750000       0.68750000 </v>
    <v>       0.93750000       0.18750000       0.68750000 </v>
    <v>       0.18750000       0.43750000       0.68750000 </v>
    <v>       0.43750000       0.43750000       0.68750000 </v>
    <v>       0.68750000       0.43750000       0.68750000 </v>
    <v>       0.93750000       0.43750000       0.68750000 </v>
    <v>       0.18750000       0.68750000       0.68750000 </v>
    <v>       0.43750000       0.68750000       0.68750000 </v>
    <v>       0.68750000       0.68750000       0.68750000 </v>
    <v>       0.93750000       0.68750000       0.68750000 </v>
    <v>       0.18750000       0.93750000       0.68750000 </v>
    <v>       0.43750000       0.93750000       0.68750000 </v>
    <v>       0.68750000       0.93750000       0.68750000 </v>
    <v>       0.93750000       0.93750000       0.68750000 </v>
    <v>       0.18750000       0.18750000       0.93750000 </v>
    <v>       0.43750000       0.18750000       0.93750000 </v>
    <v>       0.68750000       0.18750000       0.93750000 </v>
    <v>       0.93750000       0.18750000       0.93750000 </v>
    <v>       0.18750000       0.43750000       0.93750000 </v>
    <v>       0.43750000       0.43750000       0.93750000 </v>
    <v>       0.68750000       0.43750000       0.93750000 </v>
    <v>       0.93750000       0.43750000       0.93750000 </v>
    <v>       0.18750000       0.68750000       0.93750000 </v>
    <v>       0.43750000       0.68750000       0.93750000 </v>
    <v>       0.68750000       0.68750000       0.93750000 </v>
    <v>       0.93750000       0.68750000       0.93750000 </v>
    <v>       0.18750000       0.93750000       0.93750000 </v>
    <v>       0.43750000       0.93750000       0.93750000 </v>
    <v>       0.68750000       0.93750000       0.93750000 </v>
    <v>       0.93750000       0.93750000       0.93750000 </v>
   </varray>
  </structure>
  <varray name="forces" >
   <v>       0.00134066      -0.08274068      -0.08274068 </v>
   <v>      -0.00125903       0.00239396       0.00239396 </v>
   <v>      -0.00001022       0.00010056       0.00010056 </v>
   <v>       0.00122989       0.00234916       0.00234916 </v>
   <v>       0.00179565      -0.00347298       0.00181876 </v>
   <v>      -0.00010191       0.00031855       0.00011649 </v>
   <v>       0.00009823       0.00011453       0.00031468 </v>
   <v>      -0.00179170       0.00182329      -0.00348239 </v>
   <v>       0.00018269      -0.00145775      -0.00008487 </v>
   <v>      -0.00000350       0.00041650       0.00041651 </v>
   <v>      -0.00019052      -0.00008649      -0.00146013 </v>
   <v>      -0.00000407       0.00041400       0.00041619 </v>
   <v>       0.00054525      -0.00223652       0.00057065 </v>
   <v>      -0.00055543       0.00058440      -0.00222906 </v>
   <v>       0.00015413       0.00017186       0.00025899 </v>
   <v>      -0.00016080       0.00025652       0.00017474 </v>
   <v>       0.00179565       0.00181876      -0.00347298 </v>
   <v>      -0.00010191       0.00011649       0.00031855 </v>
   <v>       0.00009823       0.00031468       0.00011453 </v>
   <v>      -0.00179170      -0.00348239       0.00182329 </v>
   <v>       0.00022911      -0.00013707      -0.00013707 </v>
   <v>      -0.00000575       0.00006832       0.00006832 </v>
   <v>      -0.00023947      -0.00013672      -0.00013672 </v>
   <v>      -0.00000614       0.00016573       0.00016573 </v>
   <v>       0.00044893      -0.00003684      -0.00011965 </v>
   <v>      -0.00046006      -0.00011896      -0.00003528 </v>
   <v>       0.00000842       0.00008814       0.00009113 </v>
   <v>      -0.00001588       0.00009290       0.00008909 </v>
   <v>      -0.00000294       0.00002617       0.00002760 </v>
   <v>      -0.00000397       0.00007217       0.00016374 </v>
   <v>      -0.00000418       0.00007615       0.00007726 </v>
   <v>      -0.00000603       0.00016606       0.00006959 </v>
   <v>       0.00018269      -0.00008487      -0.00145775 </v>
   <v>      -0.00000350       0.00041651       0.00041650 </v>
   <v>      -0.00019052      -0.00146013      -0.00008649 </v>
   <v>      -0.00000407       0.00041619       0.00041400 </v>
   <v>       0.00044893      -0.00011965      -0.00003684 </v>
   <v>      -0.00046006      -0.00003528      -0.00011896 </v>
   <v>       0.00000842       0.00009113       0.00008814 </v>
   <v>      -0.00001588       0.00008909       0.00009290 </v>
   <v>      -0.00000353      -0.00027404      -0.00027404 </v>
   <v>      -0.00001574       0.00008995       0.00008995 </v>
   <v>      -0.00000470       0.00008081       0.00008081 </v>
   <v>       0.00000915       0.00008915       0.00008915 </v>
   <v>       0.00038927      -0.00017758       0.00002095 </v>
   <v>      -0.00000461       0.00007540       0.00010593 </v>
   <v>      -0.00000371       0.00010603       0.00007687 </v>
   <v>      -0.00039719       0.00002239      -0.00017952 </v>
   <v>       0.00054525       0.00057065      -0.00223652 </v>
   <v>      -0.00055543      -0.00222906       0.00058440 </v>
   <v>       0.00015413       0.00025899       0.00017186 </v>
   <v>      -0.00016080       0.00017474       0.00025652 </v>
   <v>      -0.00000294       0.00002760       0.00002617 </v>
   <v>      -0.00000397       0.00016374       0.00007217 </v>
   <v>      -0.00000418       0.00007726       0.00007615 </v>
   <v>      -0.00000603       0.00006959       0.00016606 </v>
   <v>       0.00038927       0.00002095      -0.00017758 </v>
   <v>      -0.00000461       0.00010593       0.00007540 </v>
   <v>      -0.00000371       0.00007687       0.00010603 </v>
   <v>      -0.00039719      -0.00017952       0.00002239 </v>
   <v>       0.00034873      -0.00013689      -0.00013689 </v>
   <v>      -0.00000296       0.00016466       0.00016466 </v>
   <v>      -0.00035651      -0.00013520      -0.00013520 </v>
   <v>      -0.00000489       0.00006761       0.00006761 </v>
   <v>       0.00001562      -0.00008092      -0.00008092 </v>
   <v>      -0.00000851      -0.00008129      -0.00008129 </v>
   <v>       0.00037741       0.00015875       0.00015875 </v>
   <v>      -0.00037234       0.00015957       0.00015957 </v>
   <v>       0.00000541      -0.00009190      -0.00009221 </v>
   <v>       0.00023076       0.00016648       0.00006357 </v>
   <v>       0.00000484      -0.00007761      -0.00007691 </v>
   <v>      -0.00022292       0.00006135       0.00016785 </v>
   <v>       0.00057946       0.00015714      -0.00001978 </v>
   <v>       0.00001625      -0.00002778      -0.00008947 </v>
   <v>      -0.00000859      -0.00009024      -0.00002828 </v>
   <v>      -0.00056839      -0.00002040       0.00016003 </v>
   <v>       0.00018240      -0.00021807      -0.00041693 </v>
   <v>       0.00000265      -0.00005939      -0.00005818 </v>
   <v>      -0.00017708      -0.00041392      -0.00021438 </v>
   <v>      -0.00009240       0.00655448       0.00666675 </v>
   <v>       0.00000541      -0.00009221      -0.00009190 </v>
   <v>       0.00023076       0.00006357       0.00016648 </v>
   <v>       0.00000484      -0.00007691      -0.00007761 </v>
   <v>      -0.00022292       0.00016785       0.00006135 </v>
   <v>       0.00035317       0.00008160       0.00008160 </v>
   <v>       0.00001594      -0.00007114      -0.00007114 </v>
   <v>      -0.00000761      -0.00007221      -0.00007221 </v>
   <v>      -0.00034209       0.00008356       0.00008356 </v>
   <v>       0.00004509      -0.00005671      -0.00011762 </v>
   <v>       0.00000357      -0.00008304      -0.00008340 </v>
   <v>      -0.00003539      -0.00011730      -0.00005634 </v>
   <v>       0.00000331       0.00009673       0.00009700 </v>
   <v>       0.00008934      -0.00014472      -0.00028866 </v>
   <v>      -0.00008057      -0.00028398      -0.00014344 </v>
   <v>      -0.00027746       0.00186196       0.00037948 </v>
   <v>       0.00028871       0.00038115       0.00185736 </v>
   <v>       0.00057946      -0.00001978       0.00015714 </v>
   <v>       0.00001625      -0.00008947      -0.00002778 </v>
   <v>      -0.00000859      -0.00002828      -0.00009024 </v>
   <v>      -0.00056839       0.00016003      -0.00002040 </v>
   <v>       0.00004509      -0.00011762      -0.00005671 </v>
   <v>       0.00000357      -0.00008340      -0.00008304 </v>
   <v>      -0.00003539      -0.00005634      -0.00011730 </v>
   <v>       0.00000331       0.00009700       0.00009673 </v>
   <v>       0.00003365      -0.00013028      -0.00013028 </v>
   <v>      -0.00002436      -0.00012920      -0.00012920 </v>
   <v>       0.00037245       0.00014665       0.00014665 </v>
   <v>      -0.00036369       0.00014840       0.00014840 </v>
   <v>       0.00000844      -0.00058906      -0.00060012 </v>
   <v>       0.00027489       0.00132439      -0.00017272 </v>
   <v>       0.00000433      -0.00022094      -0.00021985 </v>
   <v>      -0.00026755      -0.00017469       0.00132601 </v>
   <v>       0.00018240      -0.00041693      -0.00021807 </v>
   <v>       0.00000265      -0.00005818      -0.00005939 </v>
   <v>      -0.00017708      -0.00021438      -0.00041392 </v>
   <v>      -0.00009240       0.00666675       0.00655448 </v>
   <v>       0.00008934      -0.00028866      -0.00014472 </v>
   <v>      -0.00008057      -0.00014344      -0.00028398 </v>
   <v>      -0.00027746       0.00037948       0.00186196 </v>
   <v>       0.00028871       0.00185736       0.00038115 </v>
   <v>       0.00000844      -0.00060012      -0.00058906 </v>
   <v>       0.00027489      -0.00017272       0.00132439 </v>
   <v>       0.00000433      -0.00021985      -0.00022094 </v>
   <v>      -0.00026755       0.00132601      -0.00017469 </v>
   <v>      -0.02754164       0.03399858       0.03399858 </v>
   <v>       0.00054365       0.00011316       0.00011316 </v>
   <v>      -0.00052501       0.00010530       0.00010530 </v>
   <v>       0.02637451       0.03313027       0.03313027 </v>
  </varray>
  <varray name="stress" >
   <v>      -0.20652091      -0.03185188      -0.03185188 </v>
   <v>      -0.03185200      -0.20695033       0.00119825 </v>
   <v>      -0.03185200       0.00119825      -0.20695033 </v>
  </varray>
  <energy>
   <i name="e_fr_energy">   -633.20278948 </i>
   <i name="e_wo_entrp">   -633.20278948 </i>
   <i name="e_0_energy">   -633.20278948 </i>
  </energy>
  <time name="totalsc"> 1454.74 1461.92</time>
  <eigenvalues>
   <array>
    <dimension dim="1">band</dimension>
    <dimension dim="2">kpoint</dimension>
    <dimension dim="3">spin</dimension>
    <field>eigene</field>
    <field>occ</field>
    <set>
     <set comment="spin 1">
      <set comment="kpoint 1">
       <r>  -19.2243    1.0000 </r>
       <r>  -19.2243    1.0000 </r>
       <r>  -19.2242    1.0000 </r>
       <r>  -19.2216    1.0000 </r>
       <r>  -19.2215    1.0000 </r>
       <r>  -19.2215    1.0000 </r>
       <r>  -19.2211    1.0000 </r>
       <r>  -19.2210    1.0000 </r>
       <r>  -19.2210    1.0000 </r>
       <r>  -19.2207    1.0000 </r>
       <r>  -19.2207    1.0000 </r>
       <r>  -19.2206    1.0000 </r>
       <r>  -19.2203    1.0000 </r>
       <r>  -19.2203    1.0000 </r>
       <r>  -19.2202    1.0000 </r>
       <r>  -19.2202    1.0000 </r>
       <r>  -19.2202    1.0000 </r>
       <r>  -19.2201    1.0000 </r>
       <r>  -19.2201    1.0000 </r>
       <r>  -19.2201    1.0000 </r>
       <r>  -19.2201    1.0000 </r>
       <r>  -19.2201    1.0000 </r>
       <r>  -19.2201    1.0000 </r>
       <r>  -19.2201    1.0000 </r>
       <r>  -19.2201    1.0000 </r>
       <r>  -19.2200    1.0000 </r>
       <r>  -19.2200    1.0000 </r>
       <r>  -19.2199    1.0000 </r>
       <r>  -19.2199    1.0000 </r>
       <r>  -19.2199    1.0000 </r>
       <r>  -19.2198    1.0000 </r>
       <r>  -19.2198    1.0000 </r>
       <r>  -19.2198    1.0000 </r>
       <r>  -19.2190    1.0000 </r>
       <r>  -19.2190    1.0000 </r>
       <r>  -19.2189    1.0000 </r>
       <r>  -19.2188    1.0000 </r>
       <r>  -19.2188    1.0000 </r>
       <r>  -19.2188    1.0000 </r>
       <r>  -19.2186    1.0000 </r>
       <r>  -19.2183    1.0000 </r>
       <r>  -19.2181    1.0000 </r>
       <r>  -19.2181    1.0000 </r>
       <r>  -19.2180    1.0000 </r>
       <r>  -19.2180    1.0000 </r>
       <r>  -19.2180    1.0000 </r>
       <r>  -19.2179    1.0000 </r>
       <r>  -19.2179    1.0000 </r>
       <r>  -19.2179    1.0000 </r>
       <r>  -19.2179    1.0000 </r>
       <r>  -19.2178    1.0000 </r>
       <r>  -19.2178    1.0000 </r>
       <r>  -19.2177    1.0000 </r>
       <r>  -19.2177    1.0000 </r>
       <r>  -19.2176    1.0000 </r>
       <r>  -19.2176    1.0000 </r>
       <r>  -19.2176    1.0000 </r>
       <r>  -19.2176    1.0000 </r>
       <r>  -19.2176    1.0000 </r>
       <r>  -19.2176    1.0000 </r>
       <r>  -19.2175    1.0000 </r>
       <r>  -19.2175    1.0000 </r>
       <r>  -19.2175    1.0000 </r>
       <r>  -19.2173    1.0000 </r>
       <r>  -19.2172    1.0000 </r>
       <r>  -19.2171    1.0000 </r>
       <r>  -19.2158    1.0000 </r>
       <r>  -19.2158    1.0000 </r>
       <r>  -19.2156    1.0000 </r>
       <r>  -19.2155    1.0000 </r>
       <r>  -19.2154    1.0000 </r>
       <r>  -19.2154    1.0000 </r>
       <r>  -19.2154    1.0000 </r>
       <r>  -19.2154    1.0000 </r>
       <r>  -19.2154    1.0000 </r>
       <r>  -19.2154    1.0000 </r>
       <r>  -19.2153    1.0000 </r>
       <r>  -19.2153    1.0000 </r>
       <r>  -19.2152    1.0000 </r>
       <r>  -19.2151    1.0000 </r>
       <r>  -19.2151    1.0000 </r>
       <r>  -19.2151    1.0000 </r>
       <r>  -19.2138    1.0000 </r>
       <r>  -19.2138    1.0000 </r>
       <r>  -19.2137    1.0000 </r>
       <r>  -19.2134    1.0000 </r>
       <r>  -19.2134    1.0000 </r>
       <r>  -19.2133    1.0000 </r>
       <r>  -19.2133    1.0000 </r>
       <r>  -19.2133    1.0000 </r>
       <r>  -19.2133    1.0000 </r>
       <r>  -19.2133    1.0000 </r>
       <r>  -19.2132    1.0000 </r>
       <r>  -19.2132    1.0000 </r>
       <r>  -19.2132    1.0000 </r>
       <r>  -19.2132    1.0000 </r>
       <r>  -19.2131    1.0000 </r>
       <r>  -19.2131    1.0000 </r>
       <r>  -19.2131    1.0000 </r>
       <r>  -19.2131    1.0000 </r>
       <r>  -19.2131    1.0000 </r>
       <r>  -19.2130    1.0000 </r>
       <r>  -19.2129    1.0000 </r>
       <r>  -19.2129    1.0000 </r>
       <r>  -19.2128    1.0000 </r>
       <r>  -19.2128    1.0000 </r>
       <r>  -19.2128    1.0000 </r>
       <r>  -19.2128    1.0000 </r>
       <r>  -19.2127    1.0000 </r>
       <r>  -19.2127    1.0000 </r>
       <r>  -19.2127    1.0000 </r>
       <r>  -19.2127    1.0000 </r>
       <r>  -19.2127    1.0000 </r>
       <r>  -19.2126    1.0000 </r>
       <r>  -19.2126    1.0000 </r>
       <r>  -19.2126    1.0000 </r>
       <r>  -19.2126    1.0000 </r>
       <r>  -19.2126    1.0000 </r>
       <r>  -19.2126    1.0000 </r>
       <r>  -19.2125    1.0000 </r>
       <r>  -19.2124    1.0000 </r>
       <r>  -19.2124    1.0000 </r>
       <r>  -19.2124    1.0000 </r>
       <r>  -19.2124    1.0000 </r>
       <r>  -19.2123    1.0000 </r>
       <r>  -19.2123    1.0000 </r>
       <r>  -19.2123    1.0000 </r>
       <r>  -19.2122    1.0000 </r>
       <r>  -19.2122    1.0000 </r>
       <r>  -19.2120    1.0000 </r>
       <r>  -19.2119    1.0000 </r>
       <r>  -19.2119    1.0000 </r>
       <r>  -19.2114    1.0000 </r>
       <r>  -19.2113    1.0000 </r>
       <r>  -19.2113    1.0000 </r>
       <r>  -19.2112    1.0000 </r>
       <r>  -19.2112    1.0000 </r>
       <r>  -19.2112    1.0000 </r>
       <r>  -19.2111    1.0000 </r>
       <r>  -19.2111    1.0000 </r>
       <r>  -19.2111    1.0000 </r>
       <r>  -19.2111    1.0000 </r>
       <r>  -19.2110    1.0000 </r>
       <r>  -19.2110    1.0000 </r>
       <r>  -19.2110    1.0000 </r>
       <r>  -19.2110    1.0000 </r>
       <r>  -19.2110    1.0000 </r>
       <r>  -19.2109    1.0000 </r>
       <r>  -19.2109    1.0000 </r>
       <r>  -19.2109    1.0000 </r>
       <r>  -19.2109    1.0000 </r>
       <r>  -19.2108    1.0000 </r>
       <r>  -19.2108    1.0000 </r>
       <r>  -19.2106    1.0000 </r>
       <r>  -19.2105    1.0000 </r>
       <r>  -19.2104    1.0000 </r>
       <r>  -19.2104    1.0000 </r>
       <r>  -19.2103    1.0000 </r>
       <r>  -19.2103    1.0000 </r>
       <r>  -19.2102    1.0000 </r>
       <r>  -19.2102    1.0000 </r>
       <r>  -19.2102    1.0000 </r>
       <r>  -19.2101    1.0000 </r>
       <r>  -19.2101    1.0000 </r>
       <r>  -19.2101    1.0000 </r>
       <r>  -19.2101    1.0000 </r>
       <r>  -19.2100    1.0000 </r>
       <r>  -19.2100    1.0000 </r>
       <r>  -19.2100    1.0000 </r>
       <r>  -19.2100    1.0000 </r>
       <r>  -19.2100    1.0000 </r>
       <r>  -19.2100    1.0000 </r>
       <r>  -19.2099    1.0000 </r>
       <r>  -19.2099    1.0000 </r>
       <r>  -19.2098    1.0000 </r>
       <r>  -19.2098    1.0000 </r>
       <r>  -19.2098    1.0000 </r>
       <r>  -19.2091    1.0000 </r>
       <r>  -19.2091    1.0000 </r>
       <r>  -19.2089    1.0000 </r>
       <r>  -19.2074    1.0000 </r>
       <r>  -19.2074    1.0000 </r>
       <r>  -19.2073    1.0000 </r>
       <r>  -19.2072    1.0000 </r>
       <r>  -19.2072    1.0000 </r>
       <r>  -19.2072    1.0000 </r>
       <r>  -19.2072    1.0000 </r>
       <r>  -19.2072    1.0000 </r>
       <r>  -19.2072    1.0000 </r>
       <r>  -19.2069    1.0000 </r>
       <r>  -19.2067    1.0000 </r>
       <r>  -19.2066    1.0000 </r>
       <r>  -19.1967    1.0000 </r>
       <r>  -19.1967    1.0000 </r>
       <r>  -19.1963    1.0000 </r>
       <r>  -19.1957    1.0000 </r>
       <r>  -19.1956    1.0000 </r>
       <r>  -19.1946    1.0000 </r>
       <r>  -19.1946    1.0000 </r>
       <r>  -19.1945    1.0000 </r>
       <r>  -19.1944    1.0000 </r>
       <r>  -19.1943    1.0000 </r>
       <r>  -19.1943    1.0000 </r>
       <r>  -19.1943    1.0000 </r>
       <r>  -19.1942    1.0000 </r>
       <r>  -19.1942    1.0000 </r>
       <r>  -19.1942    1.0000 </r>
       <r>  -19.1941    1.0000 </r>
       <r>  -19.1941    1.0000 </r>
       <r>  -19.1940    1.0000 </r>
       <r>  -19.1940    1.0000 </r>
       <r>  -19.1940    1.0000 </r>
       <r>  -19.1940    1.0000 </r>
       <r>  -19.1940    1.0000 </r>
       <r>  -19.1940    1.0000 </r>
       <r>  -19.1939    1.0000 </r>
       <r>  -19.1939    1.0000 </r>
       <r>  -19.1939    1.0000 </r>
       <r>  -19.1939    1.0000 </r>
       <r>  -19.1939    1.0000 </r>
       <r>  -19.1939    1.0000 </r>
       <r>  -19.1938    1.0000 </r>
       <r>  -19.1938    1.0000 </r>
       <r>  -19.1938    1.0000 </r>
       <r>  -19.1938    1.0000 </r>
       <r>  -19.1937    1.0000 </r>
       <r>  -19.1937    1.0000 </r>
       <r>  -19.1936    1.0000 </r>
       <r>  -19.1936    1.0000 </r>
       <r>  -19.1935    1.0000 </r>
       <r>  -19.1934    1.0000 </r>
       <r>  -19.1929    1.0000 </r>
       <r>  -19.1928    1.0000 </r>
       <r>  -19.1925    1.0000 </r>
       <r>  -19.1924    1.0000 </r>
       <r>  -19.1923    1.0000 </r>
       <r>  -19.1922    1.0000 </r>
       <r>  -19.1922    1.0000 </r>
       <r>  -19.1922    1.0000 </r>
       <r>  -19.1921    1.0000 </r>
       <r>  -19.1921    1.0000 </r>
       <r>  -19.1921    1.0000 </r>
       <r>  -19.1921    1.0000 </r>
       <r>  -19.1920    1.0000 </r>
       <r>  -19.1920    1.0000 </r>
       <r>  -19.1920    1.0000 </r>
       <r>  -19.1920    1.0000 </r>
       <r>  -19.1919    1.0000 </r>
       <r>  -19.1919    1.0000 </r>
       <r>  -19.1919    1.0000 </r>
       <r>  -19.1919    1.0000 </r>
       <r>  -19.1919    1.0000 </r>
       <r>  -19.1919    1.0000 </r>
       <r>  -19.1918    1.0000 </r>
       <r>  -19.1918    1.0000 </r>
       <r>  -19.1918    1.0000 </r>
       <r>  -19.1918    1.0000 </r>
       <r>  -19.1918    1.0000 </r>
       <r>  -19.1917    1.0000 </r>
       <r>  -19.1917    1.0000 </r>
       <r>  -19.1917    1.0000 </r>
       <r>  -19.1917    1.0000 </r>
       <r>  -19.1916    1.0000 </r>
       <r>  -19.1916    1.0000 </r>
       <r>  -19.1916    1.0000 </r>
       <r>  -19.1915    1.0000 </r>
       <r>  -19.1915    1.0000 </r>
       <r>  -19.1915    1.0000 </r>
       <r>  -19.1915    1.0000 </r>
       <r>  -19.1914    1.0000 </r>
       <r>  -19.1914    1.0000 </r>
       <r>  -19.1913    1.0000 </r>
       <r>  -19.1912    1.0000 </r>
       <r>  -19.1912    1.0000 </r>
       <r>  -19.1912    1.0000 </r>
       <r>  -19.1911    1.0000 </r>
       <r>  -19.1911    1.0000 </r>
       <r>  -19.1911    1.0000 </r>
       <r>  -19.1911    1.0000 </r>
       <r>  -19.1908    1.0000 </r>
       <r>  -19.1907    1.0000 </r>
       <r>  -19.1904    1.0000 </r>
       <r>  -19.1903    1.0000 </r>
       <r>  -19.1903    1.0000 </r>
       <r>  -19.1902    1.0000 </r>
       <r>  -19.1902    1.0000 </r>
       <r>  -19.1901    1.0000 </r>
       <r>  -19.1901    1.0000 </r>
       <r>  -19.1901    1.0000 </r>
       <r>  -19.1900    1.0000 </r>
       <r>  -19.1900    1.0000 </r>
       <r>  -19.1899    1.0000 </r>
       <r>  -19.1899    1.0000 </r>
       <r>  -19.1899    1.0000 </r>
       <r>  -19.1898    1.0000 </r>
       <r>  -19.1898    1.0000 </r>
       <r>  -19.1898    1.0000 </r>
       <r>  -19.1898    1.0000 </r>
       <r>  -19.1898    1.0000 </r>
       <r>  -19.1898    1.0000 </r>
       <r>  -19.1898    1.0000 </r>
       <r>  -19.1897    1.0000 </r>
       <r>  -19.1897    1.0000 </r>
       <r>  -19.1897    1.0000 </r>
       <r>  -19.1897    1.0000 </r>
       <r>  -19.1897    1.0000 </r>
       <r>  -19.1896    1.0000 </r>
       <r>  -19.1896    1.0000 </r>
       <r>  -19.1896    1.0000 </r>
       <r>  -19.1895    1.0000 </r>
       <r>  -19.1895    1.0000 </r>
       <r>  -19.1894    1.0000 </r>
       <r>  -19.1894    1.0000 </r>
       <r>  -19.1893    1.0000 </r>
       <r>  -19.1893    1.0000 </r>
       <r>  -19.1883    1.0000 </r>
       <r>  -19.1883    1.0000 </r>
       <r>  -19.1879    1.0000 </r>
       <r>  -19.1874    1.0000 </r>
       <r>  -19.1873    1.0000 </r>
       <r>   -7.0785    1.0000 </r>
       <r>   -6.3352    1.0000 </r>
       <r>   -6.3340    1.0000 </r>
       <r>   -6.3339    1.0000 </r>
       <r>   -6.3339    1.0000 </r>
       <r>   -6.3339    1.0000 </r>
       <r>   -6.3339    1.0000 </r>
       <r>   -6.3338    1.0000 </r>
       <r>   -6.3326    1.0000 </r>
       <r>   -6.0685    1.0000 </r>
       <r>   -6.0675    1.0000 </r>
       <r>   -6.0675    1.0000 </r>
       <r>   -6.0675    1.0000 </r>
       <r>   -6.0675    1.0000 </r>
       <r>   -6.0665    1.0000 </r>
       <r>   -5.1940    1.0000 </r>
       <r>   -5.1919    1.0000 </r>
       <r>   -5.1919    1.0000 </r>
       <r>   -5.1918    1.0000 </r>
       <r>   -5.1918    1.0000 </r>
       <r>   -5.1917    1.0000 </r>
       <r>   -5.1917    1.0000 </r>
       <r>   -5.1917    1.0000 </r>
       <r>   -5.1917    1.0000 </r>
       <r>   -5.1916    1.0000 </r>
       <r>   -5.1916    1.0000 </r>
       <r>   -5.1895    1.0000 </r>
       <r>   -4.9753    1.0000 </r>
       <r>   -4.9745    1.0000 </r>
       <r>   -4.9745    1.0000 </r>
       <r>   -4.9738    1.0000 </r>
       <r>   -4.5918    1.0000 </r>
       <r>   -4.5874    1.0000 </r>
       <r>   -4.5873    1.0000 </r>
       <r>   -4.5873    1.0000 </r>
       <r>   -4.5872    1.0000 </r>
       <r>   -4.5872    1.0000 </r>
       <r>   -4.5872    1.0000 </r>
       <r>   -4.5872    1.0000 </r>
       <r>   -4.5871    1.0000 </r>
       <r>   -4.5871    1.0000 </r>
       <r>   -4.5870    1.0000 </r>
       <r>   -4.5870    1.0000 </r>
       <r>   -4.5870    1.0000 </r>
       <r>   -4.5870    1.0000 </r>
       <r>   -4.5870    1.0000 </r>
       <r>   -4.5870    1.0000 </r>
       <r>   -4.5869    1.0000 </r>
       <r>   -4.5869    1.0000 </r>
       <r>   -4.5869    1.0000 </r>
       <r>   -4.5868    1.0000 </r>
       <r>   -4.5868    1.0000 </r>
       <r>   -4.5868    1.0000 </r>
       <r>   -4.5867    1.0000 </r>
       <r>   -4.5823    1.0000 </r>
       <r>   -3.5634    1.0000 </r>
       <r>   -3.5628    1.0000 </r>
       <r>   -3.5623    1.0000 </r>
       <r>   -3.4751    1.0000 </r>
       <r>   -3.4741    1.0000 </r>
       <r>   -3.4740    1.0000 </r>
       <r>   -3.4740    1.0000 </r>
       <r>   -3.4739    1.0000 </r>
       <r>   -3.4729    1.0000 </r>
       <r>   -2.7380    1.0000 </r>
       <r>   -2.7380    1.0000 </r>
       <r>   -2.7380    1.0000 </r>
       <r>   -2.5870    1.0000 </r>
       <r>   -2.5869    1.0000 </r>
       <r>   -2.5869    1.0000 </r>
       <r>   -2.5869    1.0000 </r>
       <r>   -2.5868    1.0000 </r>
       <r>   -2.5867    1.0000 </r>
       <r>   -1.9891    1.0000 </r>
       <r>   -1.9884    1.0000 </r>
       <r>   -1.9884    1.0000 </r>
       <r>   -1.9876    1.0000 </r>
       <r>   -1.6362    1.0000 </r>
       <r>   -1.6326    1.0000 </r>
       <r>   -1.6325    1.0000 </r>
       <r>   -1.6322    1.0000 </r>
       <r>   -1.6322    1.0000 </r>
       <r>   -1.6320    1.0000 </r>
       <r>   -1.6320    1.0000 </r>
       <r>   -1.6319    1.0000 </r>
       <r>   -1.6319    1.0000 </r>
       <r>   -1.6319    1.0000 </r>
       <r>   -1.6319    1.0000 </r>
       <r>   -1.6319    1.0000 </r>
       <r>   -1.6319    1.0000 </r>
       <r>   -1.6319    1.0000 </r>
       <r>   -1.6318    1.0000 </r>
       <r>   -1.6318    1.0000 </r>
       <r>   -1.6318    1.0000 </r>
       <r>   -1.6318    1.0000 </r>
       <r>   -1.6317    1.0000 </r>
       <r>   -1.6316    1.0000 </r>
       <r>   -1.6315    1.0000 </r>
       <r>   -1.6313    1.0000 </r>
       <r>   -1.6311    1.0000 </r>
       <r>   -1.6276    1.0000 </r>
       <r>   -0.7972    1.0000 </r>
       <r>   -0.7956    1.0000 </r>
       <r>   -0.7954    1.0000 </r>
       <r>   -0.7953    1.0000 </r>
       <r>   -0.7952    1.0000 </r>
       <r>   -0.7952    1.0000 </r>
       <r>   -0.7952    1.0000 </r>
       <r>   -0.7952    1.0000 </r>
       <r>   -0.7951    1.0000 </r>
       <r>   -0.7950    1.0000 </r>
       <r>   -0.7948    1.0000 </r>
       <r>   -0.7932    1.0000 </r>
       <r>    0.8764    1.0000 </r>
       <r>    0.8772    1.0000 </r>
       <r>    0.8776    1.0000 </r>
       <r>    0.8776    1.0000 </r>
       <r>    0.8776    1.0000 </r>
       <r>    0.8776    1.0000 </r>
       <r>    0.8781    1.0000 </r>
       <r>    0.8788    1.0000 </r>
       <r>    1.0277    1.0000 </r>
       <r>    1.0286    1.0000 </r>
       <r>    1.0287    1.0000 </r>
       <r>    1.0287    1.0000 </r>
       <r>    1.0288    1.0000 </r>
       <r>    1.0297    1.0000 </r>
       <r>    1.3201    1.0000 </r>
       <r>    1.3203    1.0000 </r>
       <r>    1.3208    1.0000 </r>
       <r>    1.3208    1.0000 </r>
       <r>    1.3213    1.0000 </r>
       <r>    1.3214    1.0000 </r>
       <r>    1.3871    1.0000 </r>
       <r>    1.3872    1.0000 </r>
       <r>    1.3873    1.0000 </r>
       <r>    1.3873    1.0000 </r>
       <r>    1.3874    1.0000 </r>
       <r>    1.3874    1.0000 </r>
       <r>    1.4139    1.0000 </r>
       <r>    1.4141    1.0000 </r>
       <r>    1.4141    1.0000 </r>
       <r>    1.4148    1.0000 </r>
       <r>    1.4148    1.0000 </r>
       <r>    1.4148    1.0000 </r>
       <r>    1.4148    1.0000 </r>
       <r>    1.4149    1.0000 </r>
       <r>    1.4149    1.0000 </r>
       <r>    1.4155    1.0000 </r>
       <r>    1.4156    1.0000 </r>
       <r>    1.4158    1.0000 </r>
       <r>    1.5751    1.0000 </r>
       <r>    1.5754    1.0000 </r>
       <r>    1.5760    1.0000 </r>
       <r>    1.5768    1.0000 </r>
       <r>    1.5769    1.0000 </r>
       <r>    1.5770    1.0000 </r>
       <r>    1.5770    1.0000 </r>
       <r>    1.5770    1.0000 </r>
       <r>    1.5771    1.0000 </r>
       <r>    1.5771    1.0000 </r>
       <r>    1.5771    1.0000 </r>
       <r>    1.5771    1.0000 </r>
       <r>    1.5771    1.0000 </r>
       <r>    1.5771    1.0000 </r>
       <r>    1.5772    1.0000 </r>
       <r>    1.5772    1.0000 </r>
       <r>    1.5773    1.0000 </r>
       <r>    1.5773    1.0000 </r>
       <r>    1.5773    1.0000 </r>
       <r>    1.5774    1.0000 </r>
       <r>    1.5774    1.0000 </r>
       <r>    1.5782    1.0000 </r>
       <r>    1.5789    1.0000 </r>
       <r>    1.5792    1.0000 </r>
       <r>    2.2206    1.0000 </r>
       <r>    2.2209    1.0000 </r>
       <r>    2.2210    1.0000 </r>
       <r>    2.2210    1.0000 </r>
       <r>    2.2211    1.0000 </r>
       <r>    2.2214    1.0000 </r>
       <r>    2.8612    1.0000 </r>
       <r>    2.8627    1.0000 </r>
       <r>    2.8633    1.0000 </r>
       <r>    2.8633    1.0000 </r>
       <r>    2.8637    1.0000 </r>
       <r>    2.8637    1.0000 </r>
       <r>    2.8638    1.0000 </r>
       <r>    2.8638    1.0000 </r>
       <r>    2.8638    1.0000 </r>
       <r>    2.8638    1.0000 </r>
       <r>    2.8639    1.0000 </r>
       <r>    2.8639    1.0000 </r>
       <r>    2.8639    1.0000 </r>
       <r>    2.8639    1.0000 </r>
       <r>    2.8639    1.0000 </r>
       <r>    2.8639    1.0000 </r>
       <r>    2.8639    1.0000 </r>
       <r>    2.8639    1.0000 </r>
       <r>    2.8640    1.0000 </r>
       <r>    2.8641    1.0000 </r>
       <r>    2.8644    1.0000 </r>
       <r>    2.8644    1.0000 </r>
       <r>    2.8650    1.0000 </r>
       <r>    2.8665    1.0000 </r>
       <r>    3.1978    1.0000 </r>
       <r>    3.1990    1.0000 </r>
       <r>    3.1991    1.0000 </r>
       <r>    3.1993    1.0000 </r>
       <r>    3.1994    1.0000 </r>
       <r>    3.1994    1.0000 </r>
       <r>    3.1994    1.0000 </r>
       <r>    3.1994    1.0000 </r>
       <r>    3.1995    1.0000 </r>
       <r>    3.1997    1.0000 </r>
       <r>    3.1999    1.0000 </r>
       <r>    3.2010    1.0000 </r>
       <r>    3.7234    1.0000 </r>
       <r>    3.7245    1.0000 </r>
       <r>    3.7250    1.0000 </r>
       <r>    3.7250    1.0000 </r>
       <r>    3.7251    1.0000 </r>
       <r>    3.7252    1.0000 </r>
       <r>    3.7252    1.0000 </r>
       <r>    3.7253    1.0000 </r>
       <r>    3.7254    1.0000 </r>
       <r>    3.7254    1.0000 </r>
       <r>    3.7259    1.0000 </r>
       <r>    3.7269    1.0000 </r>
       <r>    3.8300    1.0000 </r>
       <r>    3.8309    1.0000 </r>
       <r>    3.8312    1.0000 </r>
       <r>    3.8312    1.0000 </r>
       <r>    3.8314    1.0000 </r>
       <r>    3.8314    1.0000 </r>
       <r>    3.8317    1.0000 </r>
       <r>    3.8326    1.0000 </r>
       <r>    4.3037    1.0000 </r>
       <r>    4.3063    1.0000 </r>
       <r>    4.3064    1.0000 </r>
       <r>    4.3064    1.0000 </r>
       <r>    4.3067    1.0000 </r>
       <r>    4.3067    1.0000 </r>
       <r>    4.3067    1.0000 </r>
       <r>    4.3067    1.0000 </r>
       <r>    4.3068    1.0000 </r>
       <r>    4.3068    1.0000 </r>
       <r>    4.3068    1.0000 </r>
       <r>    4.3068    1.0000 </r>
       <r>    4.3071    1.0000 </r>
       <r>    4.3071    1.0000 </r>
       <r>    4.3073    1.0000 </r>
       <r>    4.3099    1.0000 </r>
       <r>    5.1093    1.0000 </r>
       <r>    5.1100    1.0000 </r>
       <r>    5.1108    1.0000 </r>
       <r>    5.7768    0.0000 </r>
       <r>    5.7775    0.0000 </r>
       <r>    5.7783    0.0000 </r>
       <r>    5.8952    0.0000 </r>
       <r>    5.8955    0.0000 </r>
       <r>    5.8955    0.0000 </r>
       <r>    5.8958    0.0000 </r>
       <r>    6.0695    0.0000 </r>
       <r>    6.0695    0.0000 </r>
       <r>    6.0695    0.0000 </r>
       <r>    6.2154    0.0000 </r>
       <r>    6.2160    0.0000 </r>
       <r>    6.2164    0.0000 </r>
       <r>    6.2164    0.0000 </r>
       <r>    6.2168    0.0000 </r>
       <r>    6.2173    0.0000 </r>
       <r>    6.3900    0.0000 </r>
       <r>    6.3907    0.0000 </r>
       <r>    6.3909    0.0000 </r>
       <r>    6.3909    0.0000 </r>
       <r>    6.3910    0.0000 </r>
       <r>    6.3910    0.0000 </r>
       <r>    6.3912    0.0000 </r>
       <r>    6.3918    0.0000 </r>
       <r>    6.4717    0.0000 </r>
       <r>    6.6236    0.0000 </r>
       <r>    6.6248    0.0000 </r>
       <r>    6.6263    0.0000 </r>
       <r>    6.6266    0.0000 </r>
       <r>    6.6266    0.0000 </r>
       <r>    6.6267    0.0000 </r>
       <r>    6.6267    0.0000 </r>
       <r>    6.6268    0.0000 </r>
       <r>    6.6268    0.0000 </r>
       <r>    6.6268    0.0000 </r>
       <r>    6.6269    0.0000 </r>
       <r>    6.6269    0.0000 </r>
       <r>    6.6269    0.0000 </r>
       <r>    6.6269    0.0000 </r>
       <r>    6.6269    0.0000 </r>
       <r>    6.6269    0.0000 </r>
       <r>    6.6269    0.0000 </r>
       <r>    6.6270    0.0000 </r>
       <r>    6.6270    0.0000 </r>
       <r>    6.6271    0.0000 </r>
       <r>    6.6271    0.0000 </r>
       <r>    6.6274    0.0000 </r>
       <r>    6.6289    0.0000 </r>
       <r>    6.6301    0.0000 </r>
       <r>    7.3355    0.0000 </r>
       <r>    7.3360    0.0000 </r>
       <r>    7.3367    0.0000 </r>
       <r>    7.3369    0.0000 </r>
       <r>    7.3369    0.0000 </r>
       <r>    7.3370    0.0000 </r>
       <r>    7.3370    0.0000 </r>
       <r>    7.3370    0.0000 </r>
       <r>    7.3370    0.0000 </r>
       <r>    7.3372    0.0000 </r>
       <r>    7.3380    0.0000 </r>
       <r>    7.3384    0.0000 </r>
       <r>    7.6381    0.0000 </r>
       <r>    7.6386    0.0000 </r>
       <r>    7.6391    0.0000 </r>
       <r>    8.1264    0.0000 </r>
       <r>    8.1266    0.0000 </r>
       <r>    8.1268    0.0000 </r>
       <r>    8.1268    0.0000 </r>
       <r>    8.1271    0.0000 </r>
       <r>    8.1272    0.0000 </r>
       <r>    8.6363    0.0000 </r>
       <r>    8.6371    0.0000 </r>
       <r>    8.6384    0.0000 </r>
       <r>    8.6385    0.0000 </r>
       <r>    8.6386    0.0000 </r>
       <r>    8.6387    0.0000 </r>
       <r>    8.6387    0.0000 </r>
       <r>    8.6387    0.0000 </r>
       <r>    8.6387    0.0000 </r>
       <r>    8.6388    0.0000 </r>
       <r>    8.6388    0.0000 </r>
       <r>    8.6389    0.0000 </r>
       <r>    8.6390    0.0000 </r>
       <r>    8.6391    0.0000 </r>
       <r>    8.6401    0.0000 </r>
       <r>    8.6409    0.0000 </r>
       <r>    8.6547    0.0000 </r>
       <r>    8.6549    0.0000 </r>
       <r>    8.6557    0.0000 </r>
       <r>    8.6557    0.0000 </r>
       <r>    8.6557    0.0000 </r>
       <r>    8.6557    0.0000 </r>
       <r>    8.6567    0.0000 </r>
       <r>    8.6570    0.0000 </r>
       <r>    9.4185    0.0000 </r>
       <r>    9.4194    0.0000 </r>
       <r>    9.4195    0.0000 </r>
       <r>    9.4202    0.0000 </r>
       <r>    9.4206    0.0000 </r>
       <r>    9.4244    0.0000 </r>
       <r>    9.4827    0.0000 </r>
       <r>    9.4829    0.0000 </r>
       <r>    9.4839    0.0000 </r>
       <r>    9.4843    0.0000 </r>
       <r>    9.4844    0.0000 </r>
       <r>    9.4846    0.0000 </r>
       <r>    9.4846    0.0000 </r>
       <r>    9.4846    0.0000 </r>
       <r>    9.4846    0.0000 </r>
       <r>    9.4847    0.0000 </r>
       <r>    9.4847    0.0000 </r>
       <r>    9.4848    0.0000 </r>
       <r>    9.4849    0.0000 </r>
       <r>    9.4850    0.0000 </r>
       <r>    9.4851    0.0000 </r>
       <r>    9.4852    0.0000 </r>
       <r>    9.4855    0.0000 </r>
       <r>    9.4859    0.0000 </r>
       <r>    9.4867    0.0000 </r>
       <r>    9.4870    0.0000 </r>
       <r>    9.4877    0.0000 </r>
       <r>    9.4930    0.0000 </r>
       <r>    9.5023    0.0000 </r>
       <r>    9.5307    0.0000 </r>
       <r>    9.5425    0.0000 </r>
       <r>    9.5433    0.0000 </r>
       <r>    9.5447    0.0000 </r>
       <r>    9.5548    0.0000 </r>
      </set>
      <set comment="kpoint 2">
       <r>  -19.2237    1.0000 </r>
       <r>  -19.2237    1.0000 </r>
       <r>  -19.2237    1.0000 </r>
       <r>  -19.2222    1.0000 </r>
       <r>  -19.2222    1.0000 </r>
       <r>  -19.2222    1.0000 </r>
       <r>  -19.2217    1.0000 </r>
       <r>  -19.2216    1.0000 </r>
       <r>  -19.2215    1.0000 </r>
       <r>  -19.2212    1.0000 </r>
       <r>  -19.2212    1.0000 </r>
       <r>  -19.2212    1.0000 </r>
       <r>  -19.2204    1.0000 </r>
       <r>  -19.2204    1.0000 </r>
       <r>  -19.2204    1.0000 </r>
       <r>  -19.2201    1.0000 </r>
       <r>  -19.2200    1.0000 </r>
       <r>  -19.2200    1.0000 </r>
       <r>  -19.2200    1.0000 </r>
       <r>  -19.2199    1.0000 </r>
       <r>  -19.2199    1.0000 </r>
       <r>  -19.2196    1.0000 </r>
       <r>  -19.2196    1.0000 </r>
       <r>  -19.2196    1.0000 </r>
       <r>  -19.2195    1.0000 </r>
       <r>  -19.2194    1.0000 </r>
       <r>  -19.2194    1.0000 </r>
       <r>  -19.2194    1.0000 </r>
       <r>  -19.2193    1.0000 </r>
       <r>  -19.2192    1.0000 </r>
       <r>  -19.2192    1.0000 </r>
       <r>  -19.2191    1.0000 </r>
       <r>  -19.2191    1.0000 </r>
       <r>  -19.2190    1.0000 </r>
       <r>  -19.2189    1.0000 </r>
       <r>  -19.2189    1.0000 </r>
       <r>  -19.2187    1.0000 </r>
       <r>  -19.2186    1.0000 </r>
       <r>  -19.2186    1.0000 </r>
       <r>  -19.2185    1.0000 </r>
       <r>  -19.2185    1.0000 </r>
       <r>  -19.2184    1.0000 </r>
       <r>  -19.2184    1.0000 </r>
       <r>  -19.2183    1.0000 </r>
       <r>  -19.2182    1.0000 </r>
       <r>  -19.2182    1.0000 </r>
       <r>  -19.2181    1.0000 </r>
       <r>  -19.2181    1.0000 </r>
       <r>  -19.2181    1.0000 </r>
       <r>  -19.2180    1.0000 </r>
       <r>  -19.2180    1.0000 </r>
       <r>  -19.2180    1.0000 </r>
       <r>  -19.2180    1.0000 </r>
       <r>  -19.2180    1.0000 </r>
       <r>  -19.2179    1.0000 </r>
       <r>  -19.2179    1.0000 </r>
       <r>  -19.2178    1.0000 </r>
       <r>  -19.2178    1.0000 </r>
       <r>  -19.2178    1.0000 </r>
       <r>  -19.2178    1.0000 </r>
       <r>  -19.2177    1.0000 </r>
       <r>  -19.2176    1.0000 </r>
       <r>  -19.2176    1.0000 </r>
       <r>  -19.2175    1.0000 </r>
       <r>  -19.2174    1.0000 </r>
       <r>  -19.2172    1.0000 </r>
       <r>  -19.2166    1.0000 </r>
       <r>  -19.2165    1.0000 </r>
       <r>  -19.2155    1.0000 </r>
       <r>  -19.2154    1.0000 </r>
       <r>  -19.2153    1.0000 </r>
       <r>  -19.2153    1.0000 </r>
       <r>  -19.2151    1.0000 </r>
       <r>  -19.2150    1.0000 </r>
       <r>  -19.2150    1.0000 </r>
       <r>  -19.2149    1.0000 </r>
       <r>  -19.2148    1.0000 </r>
       <r>  -19.2146    1.0000 </r>
       <r>  -19.2145    1.0000 </r>
       <r>  -19.2144    1.0000 </r>
       <r>  -19.2143    1.0000 </r>
       <r>  -19.2143    1.0000 </r>
       <r>  -19.2142    1.0000 </r>
       <r>  -19.2142    1.0000 </r>
       <r>  -19.2141    1.0000 </r>
       <r>  -19.2140    1.0000 </r>
       <r>  -19.2140    1.0000 </r>
       <r>  -19.2139    1.0000 </r>
       <r>  -19.2138    1.0000 </r>
       <r>  -19.2138    1.0000 </r>
       <r>  -19.2137    1.0000 </r>
       <r>  -19.2137    1.0000 </r>
       <r>  -19.2136    1.0000 </r>
       <r>  -19.2136    1.0000 </r>
       <r>  -19.2134    1.0000 </r>
       <r>  -19.2134    1.0000 </r>
       <r>  -19.2134    1.0000 </r>
       <r>  -19.2133    1.0000 </r>
       <r>  -19.2133    1.0000 </r>
       <r>  -19.2133    1.0000 </r>
       <r>  -19.2132    1.0000 </r>
       <r>  -19.2132    1.0000 </r>
       <r>  -19.2132    1.0000 </r>
       <r>  -19.2131    1.0000 </r>
       <r>  -19.2131    1.0000 </r>
       <r>  -19.2129    1.0000 </r>
       <r>  -19.2129    1.0000 </r>
       <r>  -19.2128    1.0000 </r>
       <r>  -19.2128    1.0000 </r>
       <r>  -19.2127    1.0000 </r>
       <r>  -19.2126    1.0000 </r>
       <r>  -19.2126    1.0000 </r>
       <r>  -19.2125    1.0000 </r>
       <r>  -19.2125    1.0000 </r>
       <r>  -19.2124    1.0000 </r>
       <r>  -19.2124    1.0000 </r>
       <r>  -19.2123    1.0000 </r>
       <r>  -19.2123    1.0000 </r>
       <r>  -19.2122    1.0000 </r>
       <r>  -19.2122    1.0000 </r>
       <r>  -19.2122    1.0000 </r>
       <r>  -19.2121    1.0000 </r>
       <r>  -19.2121    1.0000 </r>
       <r>  -19.2121    1.0000 </r>
       <r>  -19.2120    1.0000 </r>
       <r>  -19.2120    1.0000 </r>
       <r>  -19.2119    1.0000 </r>
       <r>  -19.2118    1.0000 </r>
       <r>  -19.2118    1.0000 </r>
       <r>  -19.2117    1.0000 </r>
       <r>  -19.2117    1.0000 </r>
       <r>  -19.2116    1.0000 </r>
       <r>  -19.2116    1.0000 </r>
       <r>  -19.2116    1.0000 </r>
       <r>  -19.2116    1.0000 </r>
       <r>  -19.2115    1.0000 </r>
       <r>  -19.2115    1.0000 </r>
       <r>  -19.2115    1.0000 </r>
       <r>  -19.2114    1.0000 </r>
       <r>  -19.2114    1.0000 </r>
       <r>  -19.2114    1.0000 </r>
       <r>  -19.2113    1.0000 </r>
       <r>  -19.2113    1.0000 </r>
       <r>  -19.2113    1.0000 </r>
       <r>  -19.2112    1.0000 </r>
       <r>  -19.2112    1.0000 </r>
       <r>  -19.2112    1.0000 </r>
       <r>  -19.2111    1.0000 </r>
       <r>  -19.2111    1.0000 </r>
       <r>  -19.2110    1.0000 </r>
       <r>  -19.2110    1.0000 </r>
       <r>  -19.2110    1.0000 </r>
       <r>  -19.2110    1.0000 </r>
       <r>  -19.2108    1.0000 </r>
       <r>  -19.2108    1.0000 </r>
       <r>  -19.2107    1.0000 </r>
       <r>  -19.2106    1.0000 </r>
       <r>  -19.2106    1.0000 </r>
       <r>  -19.2106    1.0000 </r>
       <r>  -19.2105    1.0000 </r>
       <r>  -19.2105    1.0000 </r>
       <r>  -19.2104    1.0000 </r>
       <r>  -19.2103    1.0000 </r>
       <r>  -19.2103    1.0000 </r>
       <r>  -19.2102    1.0000 </r>
       <r>  -19.2101    1.0000 </r>
       <r>  -19.2096    1.0000 </r>
       <r>  -19.2096    1.0000 </r>
       <r>  -19.2092    1.0000 </r>
       <r>  -19.2092    1.0000 </r>
       <r>  -19.2091    1.0000 </r>
       <r>  -19.2089    1.0000 </r>
       <r>  -19.2088    1.0000 </r>
       <r>  -19.2088    1.0000 </r>
       <r>  -19.2087    1.0000 </r>
       <r>  -19.2087    1.0000 </r>
       <r>  -19.2086    1.0000 </r>
       <r>  -19.2086    1.0000 </r>
       <r>  -19.2084    1.0000 </r>
       <r>  -19.2084    1.0000 </r>
       <r>  -19.2079    1.0000 </r>
       <r>  -19.2078    1.0000 </r>
       <r>  -19.2077    1.0000 </r>
       <r>  -19.2077    1.0000 </r>
       <r>  -19.2077    1.0000 </r>
       <r>  -19.2076    1.0000 </r>
       <r>  -19.2076    1.0000 </r>
       <r>  -19.2076    1.0000 </r>
       <r>  -19.2075    1.0000 </r>
       <r>  -19.2072    1.0000 </r>
       <r>  -19.2070    1.0000 </r>
       <r>  -19.2069    1.0000 </r>
       <r>  -19.1966    1.0000 </r>
       <r>  -19.1966    1.0000 </r>
       <r>  -19.1960    1.0000 </r>
       <r>  -19.1957    1.0000 </r>
       <r>  -19.1957    1.0000 </r>
       <r>  -19.1951    1.0000 </r>
       <r>  -19.1950    1.0000 </r>
       <r>  -19.1950    1.0000 </r>
       <r>  -19.1947    1.0000 </r>
       <r>  -19.1947    1.0000 </r>
       <r>  -19.1945    1.0000 </r>
       <r>  -19.1945    1.0000 </r>
       <r>  -19.1944    1.0000 </r>
       <r>  -19.1944    1.0000 </r>
       <r>  -19.1943    1.0000 </r>
       <r>  -19.1943    1.0000 </r>
       <r>  -19.1942    1.0000 </r>
       <r>  -19.1942    1.0000 </r>
       <r>  -19.1942    1.0000 </r>
       <r>  -19.1941    1.0000 </r>
       <r>  -19.1941    1.0000 </r>
       <r>  -19.1940    1.0000 </r>
       <r>  -19.1940    1.0000 </r>
       <r>  -19.1940    1.0000 </r>
       <r>  -19.1939    1.0000 </r>
       <r>  -19.1938    1.0000 </r>
       <r>  -19.1936    1.0000 </r>
       <r>  -19.1935    1.0000 </r>
       <r>  -19.1934    1.0000 </r>
       <r>  -19.1934    1.0000 </r>
       <r>  -19.1934    1.0000 </r>
       <r>  -19.1933    1.0000 </r>
       <r>  -19.1933    1.0000 </r>
       <r>  -19.1932    1.0000 </r>
       <r>  -19.1932    1.0000 </r>
       <r>  -19.1931    1.0000 </r>
       <r>  -19.1930    1.0000 </r>
       <r>  -19.1929    1.0000 </r>
       <r>  -19.1928    1.0000 </r>
       <r>  -19.1928    1.0000 </r>
       <r>  -19.1928    1.0000 </r>
       <r>  -19.1927    1.0000 </r>
       <r>  -19.1927    1.0000 </r>
       <r>  -19.1926    1.0000 </r>
       <r>  -19.1926    1.0000 </r>
       <r>  -19.1926    1.0000 </r>
       <r>  -19.1926    1.0000 </r>
       <r>  -19.1925    1.0000 </r>
       <r>  -19.1925    1.0000 </r>
       <r>  -19.1924    1.0000 </r>
       <r>  -19.1924    1.0000 </r>
       <r>  -19.1924    1.0000 </r>
       <r>  -19.1923    1.0000 </r>
       <r>  -19.1923    1.0000 </r>
       <r>  -19.1923    1.0000 </r>
       <r>  -19.1923    1.0000 </r>
       <r>  -19.1922    1.0000 </r>
       <r>  -19.1922    1.0000 </r>
       <r>  -19.1922    1.0000 </r>
       <r>  -19.1921    1.0000 </r>
       <r>  -19.1920    1.0000 </r>
       <r>  -19.1918    1.0000 </r>
       <r>  -19.1917    1.0000 </r>
       <r>  -19.1916    1.0000 </r>
       <r>  -19.1916    1.0000 </r>
       <r>  -19.1915    1.0000 </r>
       <r>  -19.1915    1.0000 </r>
       <r>  -19.1915    1.0000 </r>
       <r>  -19.1915    1.0000 </r>
       <r>  -19.1914    1.0000 </r>
       <r>  -19.1914    1.0000 </r>
       <r>  -19.1913    1.0000 </r>
       <r>  -19.1913    1.0000 </r>
       <r>  -19.1913    1.0000 </r>
       <r>  -19.1912    1.0000 </r>
       <r>  -19.1912    1.0000 </r>
       <r>  -19.1912    1.0000 </r>
       <r>  -19.1911    1.0000 </r>
       <r>  -19.1911    1.0000 </r>
       <r>  -19.1910    1.0000 </r>
       <r>  -19.1910    1.0000 </r>
       <r>  -19.1910    1.0000 </r>
       <r>  -19.1909    1.0000 </r>
       <r>  -19.1909    1.0000 </r>
       <r>  -19.1909    1.0000 </r>
       <r>  -19.1908    1.0000 </r>
       <r>  -19.1908    1.0000 </r>
       <r>  -19.1908    1.0000 </r>
       <r>  -19.1908    1.0000 </r>
       <r>  -19.1907    1.0000 </r>
       <r>  -19.1906    1.0000 </r>
       <r>  -19.1906    1.0000 </r>
       <r>  -19.1905    1.0000 </r>
       <r>  -19.1905    1.0000 </r>
       <r>  -19.1904    1.0000 </r>
       <r>  -19.1904    1.0000 </r>
       <r>  -19.1903    1.0000 </r>
       <r>  -19.1903    1.0000 </r>
       <r>  -19.1902    1.0000 </r>
       <r>  -19.1902    1.0000 </r>
       <r>  -19.1901    1.0000 </r>
       <r>  -19.1901    1.0000 </r>
       <r>  -19.1901    1.0000 </r>
       <r>  -19.1900    1.0000 </r>
       <r>  -19.1899    1.0000 </r>
       <r>  -19.1899    1.0000 </r>
       <r>  -19.1899    1.0000 </r>
       <r>  -19.1898    1.0000 </r>
       <r>  -19.1898    1.0000 </r>
       <r>  -19.1898    1.0000 </r>
       <r>  -19.1897    1.0000 </r>
       <r>  -19.1897    1.0000 </r>
       <r>  -19.1896    1.0000 </r>
       <r>  -19.1896    1.0000 </r>
       <r>  -19.1895    1.0000 </r>
       <r>  -19.1895    1.0000 </r>
       <r>  -19.1895    1.0000 </r>
       <r>  -19.1894    1.0000 </r>
       <r>  -19.1893    1.0000 </r>
       <r>  -19.1893    1.0000 </r>
       <r>  -19.1889    1.0000 </r>
       <r>  -19.1889    1.0000 </r>
       <r>  -19.1889    1.0000 </r>
       <r>  -19.1884    1.0000 </r>
       <r>  -19.1884    1.0000 </r>
       <r>  -19.1882    1.0000 </r>
       <r>  -19.1874    1.0000 </r>
       <r>  -19.1873    1.0000 </r>
       <r>   -6.9934    1.0000 </r>
       <r>   -6.7411    1.0000 </r>
       <r>   -6.4107    1.0000 </r>
       <r>   -6.4103    1.0000 </r>
       <r>   -6.4100    1.0000 </r>
       <r>   -6.3210    1.0000 </r>
       <r>   -6.3206    1.0000 </r>
       <r>   -6.3203    1.0000 </r>
       <r>   -6.0951    1.0000 </r>
       <r>   -6.0947    1.0000 </r>
       <r>   -6.0944    1.0000 </r>
       <r>   -5.8048    1.0000 </r>
       <r>   -5.7046    1.0000 </r>
       <r>   -5.7043    1.0000 </r>
       <r>   -5.7040    1.0000 </r>
       <r>   -5.6624    1.0000 </r>
       <r>   -5.6622    1.0000 </r>
       <r>   -5.6618    1.0000 </r>
       <r>   -5.2544    1.0000 </r>
       <r>   -5.1364    1.0000 </r>
       <r>   -5.1361    1.0000 </r>
       <r>   -5.1358    1.0000 </r>
       <r>   -5.1224    1.0000 </r>
       <r>   -5.1215    1.0000 </r>
       <r>   -5.1214    1.0000 </r>
       <r>   -5.1214    1.0000 </r>
       <r>   -5.1212    1.0000 </r>
       <r>   -5.1206    1.0000 </r>
       <r>   -4.9356    1.0000 </r>
       <r>   -4.9349    1.0000 </r>
       <r>   -4.9345    1.0000 </r>
       <r>   -4.9159    1.0000 </r>
       <r>   -4.9149    1.0000 </r>
       <r>   -4.9149    1.0000 </r>
       <r>   -4.9148    1.0000 </r>
       <r>   -4.9147    1.0000 </r>
       <r>   -4.9140    1.0000 </r>
       <r>   -4.8104    1.0000 </r>
       <r>   -4.8098    1.0000 </r>
       <r>   -4.8094    1.0000 </r>
       <r>   -4.6413    1.0000 </r>
       <r>   -4.6412    1.0000 </r>
       <r>   -4.6407    1.0000 </r>
       <r>   -4.3247    1.0000 </r>
       <r>   -4.3247    1.0000 </r>
       <r>   -4.3240    1.0000 </r>
       <r>   -4.2603    1.0000 </r>
       <r>   -4.2597    1.0000 </r>
       <r>   -4.2593    1.0000 </r>
       <r>   -4.1699    1.0000 </r>
       <r>   -4.1689    1.0000 </r>
       <r>   -4.1689    1.0000 </r>
       <r>   -4.1689    1.0000 </r>
       <r>   -4.1687    1.0000 </r>
       <r>   -4.1680    1.0000 </r>
       <r>   -3.8503    1.0000 </r>
       <r>   -3.8498    1.0000 </r>
       <r>   -3.8493    1.0000 </r>
       <r>   -3.7276    1.0000 </r>
       <r>   -3.7266    1.0000 </r>
       <r>   -3.7265    1.0000 </r>
       <r>   -3.7265    1.0000 </r>
       <r>   -3.7264    1.0000 </r>
       <r>   -3.7255    1.0000 </r>
       <r>   -2.3907    1.0000 </r>
       <r>   -2.3905    1.0000 </r>
       <r>   -2.3902    1.0000 </r>
       <r>   -2.3656    1.0000 </r>
       <r>   -2.3654    1.0000 </r>
       <r>   -2.3652    1.0000 </r>
       <r>   -2.3652    1.0000 </r>
       <r>   -2.3650    1.0000 </r>
       <r>   -2.3645    1.0000 </r>
       <r>   -1.9957    1.0000 </r>
       <r>   -1.9954    1.0000 </r>
       <r>   -1.9952    1.0000 </r>
       <r>   -1.9951    1.0000 </r>
       <r>   -1.9950    1.0000 </r>
       <r>   -1.9943    1.0000 </r>
       <r>   -1.9786    1.0000 </r>
       <r>   -1.9769    1.0000 </r>
       <r>   -1.9768    1.0000 </r>
       <r>   -1.9102    1.0000 </r>
       <r>   -1.9100    1.0000 </r>
       <r>   -1.9093    1.0000 </r>
       <r>   -1.8789    1.0000 </r>
       <r>   -1.8787    1.0000 </r>
       <r>   -1.8782    1.0000 </r>
       <r>   -1.7280    1.0000 </r>
       <r>   -1.7279    1.0000 </r>
       <r>   -1.7271    1.0000 </r>
       <r>   -1.5529    1.0000 </r>
       <r>   -1.5514    1.0000 </r>
       <r>   -1.5512    1.0000 </r>
       <r>   -1.5387    1.0000 </r>
       <r>   -1.2745    1.0000 </r>
       <r>   -1.2745    1.0000 </r>
       <r>   -1.2743    1.0000 </r>
       <r>   -1.2742    1.0000 </r>
       <r>   -1.2742    1.0000 </r>
       <r>   -1.2731    1.0000 </r>
       <r>   -0.9484    1.0000 </r>
       <r>   -0.9483    1.0000 </r>
       <r>   -0.9482    1.0000 </r>
       <r>   -0.9481    1.0000 </r>
       <r>   -0.9481    1.0000 </r>
       <r>   -0.9469    1.0000 </r>
       <r>   -0.8029    1.0000 </r>
       <r>   -0.8016    1.0000 </r>
       <r>   -0.8014    1.0000 </r>
       <r>   -0.4817    1.0000 </r>
       <r>   -0.1330    1.0000 </r>
       <r>   -0.1325    1.0000 </r>
       <r>   -0.1321    1.0000 </r>
       <r>    0.1549    1.0000 </r>
       <r>    0.1558    1.0000 </r>
       <r>    0.1561    1.0000 </r>
       <r>    0.3875    1.0000 </r>
       <r>    0.3878    1.0000 </r>
       <r>    0.3881    1.0000 </r>
       <r>    1.1235    1.0000 </r>
       <r>    1.1237    1.0000 </r>
       <r>    1.1239    1.0000 </r>
       <r>    1.1240    1.0000 </r>
       <r>    1.1242    1.0000 </r>
       <r>    1.1244    1.0000 </r>
       <r>    1.1410    1.0000 </r>
       <r>    1.1413    1.0000 </r>
       <r>    1.1416    1.0000 </r>
       <r>    1.2223    1.0000 </r>
       <r>    1.2224    1.0000 </r>
       <r>    1.2226    1.0000 </r>
       <r>    1.2227    1.0000 </r>
       <r>    1.2231    1.0000 </r>
       <r>    1.2233    1.0000 </r>
       <r>    1.2321    1.0000 </r>
       <r>    1.2324    1.0000 </r>
       <r>    1.2328    1.0000 </r>
       <r>    1.3288    1.0000 </r>
       <r>    1.3289    1.0000 </r>
       <r>    1.3293    1.0000 </r>
       <r>    1.4968    1.0000 </r>
       <r>    1.4968    1.0000 </r>
       <r>    1.4973    1.0000 </r>
       <r>    1.5355    1.0000 </r>
       <r>    1.5359    1.0000 </r>
       <r>    1.5360    1.0000 </r>
       <r>    1.6064    1.0000 </r>
       <r>    1.6067    1.0000 </r>
       <r>    1.6068    1.0000 </r>
       <r>    1.6069    1.0000 </r>
       <r>    1.6076    1.0000 </r>
       <r>    1.6076    1.0000 </r>
       <r>    1.8448    1.0000 </r>
       <r>    1.8450    1.0000 </r>
       <r>    1.8451    1.0000 </r>
       <r>    1.8452    1.0000 </r>
       <r>    1.8460    1.0000 </r>
       <r>    1.8460    1.0000 </r>
       <r>    1.8639    1.0000 </r>
       <r>    1.8640    1.0000 </r>
       <r>    1.8644    1.0000 </r>
       <r>    1.8645    1.0000 </r>
       <r>    1.8647    1.0000 </r>
       <r>    1.8648    1.0000 </r>
       <r>    1.9429    1.0000 </r>
       <r>    1.9432    1.0000 </r>
       <r>    1.9434    1.0000 </r>
       <r>    2.1116    1.0000 </r>
       <r>    2.1119    1.0000 </r>
       <r>    2.1123    1.0000 </r>
       <r>    2.1886    1.0000 </r>
       <r>    2.1889    1.0000 </r>
       <r>    2.1891    1.0000 </r>
       <r>    2.2263    1.0000 </r>
       <r>    2.2270    1.0000 </r>
       <r>    2.2272    1.0000 </r>
       <r>    2.2969    1.0000 </r>
       <r>    2.2970    1.0000 </r>
       <r>    2.2972    1.0000 </r>
       <r>    2.4084    1.0000 </r>
       <r>    2.4850    1.0000 </r>
       <r>    2.4854    1.0000 </r>
       <r>    2.4857    1.0000 </r>
       <r>    2.4858    1.0000 </r>
       <r>    2.4859    1.0000 </r>
       <r>    2.4861    1.0000 </r>
       <r>    2.5185    1.0000 </r>
       <r>    2.5186    1.0000 </r>
       <r>    2.5189    1.0000 </r>
       <r>    2.7330    1.0000 </r>
       <r>    2.7330    1.0000 </r>
       <r>    2.7334    1.0000 </r>
       <r>    2.8322    1.0000 </r>
       <r>    2.8324    1.0000 </r>
       <r>    2.8326    1.0000 </r>
       <r>    2.9468    1.0000 </r>
       <r>    2.9470    1.0000 </r>
       <r>    2.9473    1.0000 </r>
       <r>    2.9610    1.0000 </r>
       <r>    2.9622    1.0000 </r>
       <r>    2.9625    1.0000 </r>
       <r>    2.9625    1.0000 </r>
       <r>    2.9627    1.0000 </r>
       <r>    2.9628    1.0000 </r>
       <r>    3.0378    1.0000 </r>
       <r>    3.0380    1.0000 </r>
       <r>    3.0383    1.0000 </r>
       <r>    3.1920    1.0000 </r>
       <r>    3.1928    1.0000 </r>
       <r>    3.1931    1.0000 </r>
       <r>    3.2823    1.0000 </r>
       <r>    3.2823    1.0000 </r>
       <r>    3.2827    1.0000 </r>
       <r>    3.3376    1.0000 </r>
       <r>    3.3378    1.0000 </r>
       <r>    3.3382    1.0000 </r>
       <r>    3.3441    1.0000 </r>
       <r>    3.3448    1.0000 </r>
       <r>    3.3450    1.0000 </r>
       <r>    3.4105    1.0000 </r>
       <r>    3.4117    1.0000 </r>
       <r>    3.4121    1.0000 </r>
       <r>    3.4122    1.0000 </r>
       <r>    3.4122    1.0000 </r>
       <r>    3.4123    1.0000 </r>
       <r>    3.5021    1.0000 </r>
       <r>    3.5032    1.0000 </r>
       <r>    3.5033    1.0000 </r>
       <r>    3.5633    1.0000 </r>
       <r>    3.5634    1.0000 </r>
       <r>    3.5638    1.0000 </r>
       <r>    3.6652    1.0000 </r>
       <r>    3.6653    1.0000 </r>
       <r>    3.6657    1.0000 </r>
       <r>    3.8857    1.0000 </r>
       <r>    3.8863    1.0000 </r>
       <r>    3.9764    1.0000 </r>
       <r>    3.9766    1.0000 </r>
       <r>    3.9770    1.0000 </r>
       <r>    4.0020    1.0000 </r>
       <r>    4.0474    1.0000 </r>
       <r>    4.0479    1.0000 </r>
       <r>    4.0666    1.0000 </r>
       <r>    4.0679    1.0000 </r>
       <r>    4.0680    1.0000 </r>
       <r>    4.1198    1.0000 </r>
       <r>    4.1199    1.0000 </r>
       <r>    4.1205    1.0000 </r>
       <r>    4.3681    1.0000 </r>
       <r>    4.3682    1.0000 </r>
       <r>    4.3688    1.0000 </r>
       <r>    4.6358    1.0000 </r>
       <r>    4.6364    1.0000 </r>
       <r>    4.9591    1.0000 </r>
       <r>    4.9597    1.0000 </r>
       <r>    5.9335    0.0000 </r>
       <r>    5.9342    0.0000 </r>
       <r>    5.9345    0.0000 </r>
       <r>    5.9535    0.0000 </r>
       <r>    6.1233    0.0000 </r>
       <r>    6.2205    0.0000 </r>
       <r>    6.2211    0.0000 </r>
       <r>    6.2212    0.0000 </r>
       <r>    6.3083    0.0000 </r>
       <r>    6.3090    0.0000 </r>
       <r>    6.3090    0.0000 </r>
       <r>    6.5317    0.0000 </r>
       <r>    6.5319    0.0000 </r>
       <r>    6.5321    0.0000 </r>
       <r>    6.5427    0.0000 </r>
       <r>    6.5433    0.0000 </r>
       <r>    6.5435    0.0000 </r>
       <r>    6.5599    0.0000 </r>
       <r>    6.5601    0.0000 </r>
       <r>    6.5605    0.0000 </r>
       <r>    6.7113    0.0000 </r>
       <r>    6.7700    0.0000 </r>
       <r>    6.7706    0.0000 </r>
       <r>    6.7707    0.0000 </r>
       <r>    6.7855    0.0000 </r>
       <r>    6.7859    0.0000 </r>
       <r>    6.7864    0.0000 </r>
       <r>    6.8718    0.0000 </r>
       <r>    6.8719    0.0000 </r>
       <r>    6.8721    0.0000 </r>
       <r>    6.8978    0.0000 </r>
       <r>    6.9735    0.0000 </r>
       <r>    6.9738    0.0000 </r>
       <r>    6.9741    0.0000 </r>
       <r>    6.9822    0.0000 </r>
       <r>    6.9824    0.0000 </r>
       <r>    6.9833    0.0000 </r>
       <r>    6.9833    0.0000 </r>
       <r>    6.9834    0.0000 </r>
       <r>    6.9839    0.0000 </r>
       <r>    7.0276    0.0000 </r>
       <r>    7.0281    0.0000 </r>
       <r>    7.0282    0.0000 </r>
       <r>    7.1160    0.0000 </r>
       <r>    7.1163    0.0000 </r>
       <r>    7.1166    0.0000 </r>
       <r>    7.2776    0.0000 </r>
       <r>    7.2777    0.0000 </r>
       <r>    7.2786    0.0000 </r>
       <r>    7.2787    0.0000 </r>
       <r>    7.2787    0.0000 </r>
       <r>    7.2796    0.0000 </r>
       <r>    7.4297    0.0000 </r>
       <r>    7.4301    0.0000 </r>
       <r>    7.4303    0.0000 </r>
       <r>    7.7996    0.0000 </r>
       <r>    7.7997    0.0000 </r>
       <r>    7.8004    0.0000 </r>
       <r>    7.8005    0.0000 </r>
       <r>    7.8005    0.0000 </r>
       <r>    7.8013    0.0000 </r>
       <r>    7.8482    0.0000 </r>
       <r>    7.8486    0.0000 </r>
       <r>    7.8505    0.0000 </r>
       <r>    7.8507    0.0000 </r>
       <r>    7.8512    0.0000 </r>
       <r>    7.8677    0.0000 </r>
       <r>    7.8677    0.0000 </r>
       <r>    7.8681    0.0000 </r>
       <r>    8.0460    0.0000 </r>
       <r>    8.0460    0.0000 </r>
       <r>    8.0471    0.0000 </r>
       <r>    8.1001    0.0000 </r>
       <r>    8.1004    0.0000 </r>
       <r>    8.1012    0.0000 </r>
       <r>    8.1012    0.0000 </r>
       <r>    8.1013    0.0000 </r>
       <r>    8.1017    0.0000 </r>
       <r>    8.1578    0.0000 </r>
       <r>    8.2901    0.0000 </r>
       <r>    8.2906    0.0000 </r>
       <r>    8.3255    0.0000 </r>
       <r>    8.3255    0.0000 </r>
       <r>    8.3261    0.0000 </r>
       <r>    8.4402    0.0000 </r>
       <r>    8.4403    0.0000 </r>
       <r>    8.4404    0.0000 </r>
       <r>    8.5278    0.0000 </r>
       <r>    8.5279    0.0000 </r>
       <r>    8.5288    0.0000 </r>
       <r>    8.6018    0.0000 </r>
       <r>    8.6020    0.0000 </r>
       <r>    8.6027    0.0000 </r>
       <r>    8.6879    0.0000 </r>
       <r>    8.6886    0.0000 </r>
       <r>    8.7034    0.0000 </r>
       <r>    8.7038    0.0000 </r>
       <r>    8.7046    0.0000 </r>
       <r>    8.7047    0.0000 </r>
       <r>    8.7048    0.0000 </r>
       <r>    8.7051    0.0000 </r>
       <r>    8.7332    0.0000 </r>
       <r>    8.7338    0.0000 </r>
       <r>    8.8938    0.0000 </r>
       <r>    8.8938    0.0000 </r>
       <r>    8.8944    0.0000 </r>
       <r>    8.9652    0.0000 </r>
       <r>    8.9653    0.0000 </r>
       <r>    8.9662    0.0000 </r>
       <r>    8.9878    0.0000 </r>
       <r>    8.9878    0.0000 </r>
       <r>    8.9886    0.0000 </r>
       <r>    9.0854    0.0000 </r>
       <r>    9.0858    0.0000 </r>
       <r>    9.0863    0.0000 </r>
       <r>    9.1001    0.0000 </r>
       <r>    9.1005    0.0000 </r>
       <r>    9.1010    0.0000 </r>
       <r>    9.1012    0.0000 </r>
       <r>    9.1013    0.0000 </r>
       <r>    9.1015    0.0000 </r>
       <r>    9.1707    0.0000 </r>
       <r>    9.1710    0.0000 </r>
       <r>    9.1714    0.0000 </r>
       <r>    9.2189    0.0000 </r>
       <r>    9.2197    0.0000 </r>
       <r>    9.2304    0.0000 </r>
       <r>    9.4067    0.0000 </r>
      </set>
      <set comment="kpoint 3">
       <r>  -19.2237    1.0000 </r>
       <r>  -19.2237    1.0000 </r>
       <r>  -19.2237    1.0000 </r>
       <r>  -19.2223    1.0000 </r>
       <r>  -19.2222    1.0000 </r>
       <r>  -19.2222    1.0000 </r>
       <r>  -19.2216    1.0000 </r>
       <r>  -19.2216    1.0000 </r>
       <r>  -19.2215    1.0000 </r>
       <r>  -19.2212    1.0000 </r>
       <r>  -19.2211    1.0000 </r>
       <r>  -19.2211    1.0000 </r>
       <r>  -19.2205    1.0000 </r>
       <r>  -19.2204    1.0000 </r>
       <r>  -19.2204    1.0000 </r>
       <r>  -19.2201    1.0000 </r>
       <r>  -19.2200    1.0000 </r>
       <r>  -19.2200    1.0000 </r>
       <r>  -19.2200    1.0000 </r>
       <r>  -19.2200    1.0000 </r>
       <r>  -19.2199    1.0000 </r>
       <r>  -19.2196    1.0000 </r>
       <r>  -19.2196    1.0000 </r>
       <r>  -19.2195    1.0000 </r>
       <r>  -19.2194    1.0000 </r>
       <r>  -19.2194    1.0000 </r>
       <r>  -19.2193    1.0000 </r>
       <r>  -19.2193    1.0000 </r>
       <r>  -19.2193    1.0000 </r>
       <r>  -19.2193    1.0000 </r>
       <r>  -19.2192    1.0000 </r>
       <r>  -19.2192    1.0000 </r>
       <r>  -19.2191    1.0000 </r>
       <r>  -19.2189    1.0000 </r>
       <r>  -19.2189    1.0000 </r>
       <r>  -19.2188    1.0000 </r>
       <r>  -19.2188    1.0000 </r>
       <r>  -19.2187    1.0000 </r>
       <r>  -19.2186    1.0000 </r>
       <r>  -19.2186    1.0000 </r>
       <r>  -19.2185    1.0000 </r>
       <r>  -19.2185    1.0000 </r>
       <r>  -19.2183    1.0000 </r>
       <r>  -19.2183    1.0000 </r>
       <r>  -19.2182    1.0000 </r>
       <r>  -19.2182    1.0000 </r>
       <r>  -19.2181    1.0000 </r>
       <r>  -19.2181    1.0000 </r>
       <r>  -19.2181    1.0000 </r>
       <r>  -19.2180    1.0000 </r>
       <r>  -19.2180    1.0000 </r>
       <r>  -19.2180    1.0000 </r>
       <r>  -19.2179    1.0000 </r>
       <r>  -19.2179    1.0000 </r>
       <r>  -19.2179    1.0000 </r>
       <r>  -19.2179    1.0000 </r>
       <r>  -19.2178    1.0000 </r>
       <r>  -19.2178    1.0000 </r>
       <r>  -19.2178    1.0000 </r>
       <r>  -19.2178    1.0000 </r>
       <r>  -19.2177    1.0000 </r>
       <r>  -19.2177    1.0000 </r>
       <r>  -19.2176    1.0000 </r>
       <r>  -19.2174    1.0000 </r>
       <r>  -19.2174    1.0000 </r>
       <r>  -19.2172    1.0000 </r>
       <r>  -19.2166    1.0000 </r>
       <r>  -19.2165    1.0000 </r>
       <r>  -19.2156    1.0000 </r>
       <r>  -19.2154    1.0000 </r>
       <r>  -19.2153    1.0000 </r>
       <r>  -19.2153    1.0000 </r>
       <r>  -19.2152    1.0000 </r>
       <r>  -19.2150    1.0000 </r>
       <r>  -19.2149    1.0000 </r>
       <r>  -19.2148    1.0000 </r>
       <r>  -19.2147    1.0000 </r>
       <r>  -19.2146    1.0000 </r>
       <r>  -19.2145    1.0000 </r>
       <r>  -19.2144    1.0000 </r>
       <r>  -19.2143    1.0000 </r>
       <r>  -19.2143    1.0000 </r>
       <r>  -19.2142    1.0000 </r>
       <r>  -19.2142    1.0000 </r>
       <r>  -19.2141    1.0000 </r>
       <r>  -19.2141    1.0000 </r>
       <r>  -19.2140    1.0000 </r>
       <r>  -19.2140    1.0000 </r>
       <r>  -19.2139    1.0000 </r>
       <r>  -19.2138    1.0000 </r>
       <r>  -19.2137    1.0000 </r>
       <r>  -19.2137    1.0000 </r>
       <r>  -19.2137    1.0000 </r>
       <r>  -19.2136    1.0000 </r>
       <r>  -19.2135    1.0000 </r>
       <r>  -19.2135    1.0000 </r>
       <r>  -19.2134    1.0000 </r>
       <r>  -19.2133    1.0000 </r>
       <r>  -19.2132    1.0000 </r>
       <r>  -19.2132    1.0000 </r>
       <r>  -19.2132    1.0000 </r>
       <r>  -19.2132    1.0000 </r>
       <r>  -19.2131    1.0000 </r>
       <r>  -19.2131    1.0000 </r>
       <r>  -19.2130    1.0000 </r>
       <r>  -19.2129    1.0000 </r>
       <r>  -19.2128    1.0000 </r>
       <r>  -19.2128    1.0000 </r>
       <r>  -19.2127    1.0000 </r>
       <r>  -19.2127    1.0000 </r>
       <r>  -19.2127    1.0000 </r>
       <r>  -19.2126    1.0000 </r>
       <r>  -19.2126    1.0000 </r>
       <r>  -19.2125    1.0000 </r>
       <r>  -19.2124    1.0000 </r>
       <r>  -19.2123    1.0000 </r>
       <r>  -19.2123    1.0000 </r>
       <r>  -19.2123    1.0000 </r>
       <r>  -19.2122    1.0000 </r>
       <r>  -19.2122    1.0000 </r>
       <r>  -19.2122    1.0000 </r>
       <r>  -19.2121    1.0000 </r>
       <r>  -19.2121    1.0000 </r>
       <r>  -19.2121    1.0000 </r>
       <r>  -19.2120    1.0000 </r>
       <r>  -19.2120    1.0000 </r>
       <r>  -19.2118    1.0000 </r>
       <r>  -19.2118    1.0000 </r>
       <r>  -19.2118    1.0000 </r>
       <r>  -19.2117    1.0000 </r>
       <r>  -19.2117    1.0000 </r>
       <r>  -19.2116    1.0000 </r>
       <r>  -19.2116    1.0000 </r>
       <r>  -19.2116    1.0000 </r>
       <r>  -19.2116    1.0000 </r>
       <r>  -19.2115    1.0000 </r>
       <r>  -19.2115    1.0000 </r>
       <r>  -19.2115    1.0000 </r>
       <r>  -19.2115    1.0000 </r>
       <r>  -19.2114    1.0000 </r>
       <r>  -19.2114    1.0000 </r>
       <r>  -19.2113    1.0000 </r>
       <r>  -19.2113    1.0000 </r>
       <r>  -19.2112    1.0000 </r>
       <r>  -19.2112    1.0000 </r>
       <r>  -19.2112    1.0000 </r>
       <r>  -19.2112    1.0000 </r>
       <r>  -19.2111    1.0000 </r>
       <r>  -19.2111    1.0000 </r>
       <r>  -19.2110    1.0000 </r>
       <r>  -19.2110    1.0000 </r>
       <r>  -19.2110    1.0000 </r>
       <r>  -19.2109    1.0000 </r>
       <r>  -19.2109    1.0000 </r>
       <r>  -19.2108    1.0000 </r>
       <r>  -19.2107    1.0000 </r>
       <r>  -19.2107    1.0000 </r>
       <r>  -19.2106    1.0000 </r>
       <r>  -19.2106    1.0000 </r>
       <r>  -19.2105    1.0000 </r>
       <r>  -19.2105    1.0000 </r>
       <r>  -19.2104    1.0000 </r>
       <r>  -19.2104    1.0000 </r>
       <r>  -19.2103    1.0000 </r>
       <r>  -19.2102    1.0000 </r>
       <r>  -19.2101    1.0000 </r>
       <r>  -19.2098    1.0000 </r>
       <r>  -19.2097    1.0000 </r>
       <r>  -19.2092    1.0000 </r>
       <r>  -19.2092    1.0000 </r>
       <r>  -19.2090    1.0000 </r>
       <r>  -19.2089    1.0000 </r>
       <r>  -19.2088    1.0000 </r>
       <r>  -19.2088    1.0000 </r>
       <r>  -19.2087    1.0000 </r>
       <r>  -19.2087    1.0000 </r>
       <r>  -19.2086    1.0000 </r>
       <r>  -19.2085    1.0000 </r>
       <r>  -19.2084    1.0000 </r>
       <r>  -19.2083    1.0000 </r>
       <r>  -19.2078    1.0000 </r>
       <r>  -19.2078    1.0000 </r>
       <r>  -19.2077    1.0000 </r>
       <r>  -19.2077    1.0000 </r>
       <r>  -19.2077    1.0000 </r>
       <r>  -19.2077    1.0000 </r>
       <r>  -19.2076    1.0000 </r>
       <r>  -19.2076    1.0000 </r>
       <r>  -19.2076    1.0000 </r>
       <r>  -19.2072    1.0000 </r>
       <r>  -19.2071    1.0000 </r>
       <r>  -19.2069    1.0000 </r>
       <r>  -19.1966    1.0000 </r>
       <r>  -19.1966    1.0000 </r>
       <r>  -19.1960    1.0000 </r>
       <r>  -19.1957    1.0000 </r>
       <r>  -19.1957    1.0000 </r>
       <r>  -19.1952    1.0000 </r>
       <r>  -19.1951    1.0000 </r>
       <r>  -19.1950    1.0000 </r>
       <r>  -19.1947    1.0000 </r>
       <r>  -19.1946    1.0000 </r>
       <r>  -19.1945    1.0000 </r>
       <r>  -19.1945    1.0000 </r>
       <r>  -19.1944    1.0000 </r>
       <r>  -19.1944    1.0000 </r>
       <r>  -19.1943    1.0000 </r>
       <r>  -19.1943    1.0000 </r>
       <r>  -19.1942    1.0000 </r>
       <r>  -19.1942    1.0000 </r>
       <r>  -19.1941    1.0000 </r>
       <r>  -19.1941    1.0000 </r>
       <r>  -19.1940    1.0000 </r>
       <r>  -19.1940    1.0000 </r>
       <r>  -19.1939    1.0000 </r>
       <r>  -19.1939    1.0000 </r>
       <r>  -19.1939    1.0000 </r>
       <r>  -19.1938    1.0000 </r>
       <r>  -19.1937    1.0000 </r>
       <r>  -19.1935    1.0000 </r>
       <r>  -19.1935    1.0000 </r>
       <r>  -19.1934    1.0000 </r>
       <r>  -19.1934    1.0000 </r>
       <r>  -19.1933    1.0000 </r>
       <r>  -19.1933    1.0000 </r>
       <r>  -19.1932    1.0000 </r>
       <r>  -19.1931    1.0000 </r>
       <r>  -19.1931    1.0000 </r>
       <r>  -19.1930    1.0000 </r>
       <r>  -19.1930    1.0000 </r>
       <r>  -19.1929    1.0000 </r>
       <r>  -19.1928    1.0000 </r>
       <r>  -19.1928    1.0000 </r>
       <r>  -19.1927    1.0000 </r>
       <r>  -19.1927    1.0000 </r>
       <r>  -19.1927    1.0000 </r>
       <r>  -19.1926    1.0000 </r>
       <r>  -19.1926    1.0000 </r>
       <r>  -19.1925    1.0000 </r>
       <r>  -19.1925    1.0000 </r>
       <r>  -19.1925    1.0000 </r>
       <r>  -19.1924    1.0000 </r>
       <r>  -19.1924    1.0000 </r>
       <r>  -19.1924    1.0000 </r>
       <r>  -19.1923    1.0000 </r>
       <r>  -19.1923    1.0000 </r>
       <r>  -19.1922    1.0000 </r>
       <r>  -19.1922    1.0000 </r>
       <r>  -19.1922    1.0000 </r>
       <r>  -19.1921    1.0000 </r>
       <r>  -19.1920    1.0000 </r>
       <r>  -19.1920    1.0000 </r>
       <r>  -19.1920    1.0000 </r>
       <r>  -19.1918    1.0000 </r>
       <r>  -19.1917    1.0000 </r>
       <r>  -19.1917    1.0000 </r>
       <r>  -19.1916    1.0000 </r>
       <r>  -19.1915    1.0000 </r>
       <r>  -19.1915    1.0000 </r>
       <r>  -19.1915    1.0000 </r>
       <r>  -19.1914    1.0000 </r>
       <r>  -19.1914    1.0000 </r>
       <r>  -19.1914    1.0000 </r>
       <r>  -19.1913    1.0000 </r>
       <r>  -19.1913    1.0000 </r>
       <r>  -19.1913    1.0000 </r>
       <r>  -19.1913    1.0000 </r>
       <r>  -19.1912    1.0000 </r>
       <r>  -19.1912    1.0000 </r>
       <r>  -19.1912    1.0000 </r>
       <r>  -19.1911    1.0000 </r>
       <r>  -19.1911    1.0000 </r>
       <r>  -19.1910    1.0000 </r>
       <r>  -19.1909    1.0000 </r>
       <r>  -19.1909    1.0000 </r>
       <r>  -19.1909    1.0000 </r>
       <r>  -19.1908    1.0000 </r>
       <r>  -19.1908    1.0000 </r>
       <r>  -19.1908    1.0000 </r>
       <r>  -19.1907    1.0000 </r>
       <r>  -19.1907    1.0000 </r>
       <r>  -19.1907    1.0000 </r>
       <r>  -19.1906    1.0000 </r>
       <r>  -19.1906    1.0000 </r>
       <r>  -19.1905    1.0000 </r>
       <r>  -19.1905    1.0000 </r>
       <r>  -19.1904    1.0000 </r>
       <r>  -19.1904    1.0000 </r>
       <r>  -19.1903    1.0000 </r>
       <r>  -19.1902    1.0000 </r>
       <r>  -19.1902    1.0000 </r>
       <r>  -19.1902    1.0000 </r>
       <r>  -19.1901    1.0000 </r>
       <r>  -19.1901    1.0000 </r>
       <r>  -19.1900    1.0000 </r>
       <r>  -19.1900    1.0000 </r>
       <r>  -19.1899    1.0000 </r>
       <r>  -19.1899    1.0000 </r>
       <r>  -19.1899    1.0000 </r>
       <r>  -19.1899    1.0000 </r>
       <r>  -19.1898    1.0000 </r>
       <r>  -19.1898    1.0000 </r>
       <r>  -19.1898    1.0000 </r>
       <r>  -19.1897    1.0000 </r>
       <r>  -19.1897    1.0000 </r>
       <r>  -19.1896    1.0000 </r>
       <r>  -19.1896    1.0000 </r>
       <r>  -19.1895    1.0000 </r>
       <r>  -19.1895    1.0000 </r>
       <r>  -19.1894    1.0000 </r>
       <r>  -19.1893    1.0000 </r>
       <r>  -19.1893    1.0000 </r>
       <r>  -19.1889    1.0000 </r>
       <r>  -19.1889    1.0000 </r>
       <r>  -19.1888    1.0000 </r>
       <r>  -19.1884    1.0000 </r>
       <r>  -19.1884    1.0000 </r>
       <r>  -19.1882    1.0000 </r>
       <r>  -19.1875    1.0000 </r>
       <r>  -19.1874    1.0000 </r>
       <r>   -6.9934    1.0000 </r>
       <r>   -6.7411    1.0000 </r>
       <r>   -6.4108    1.0000 </r>
       <r>   -6.4103    1.0000 </r>
       <r>   -6.4098    1.0000 </r>
       <r>   -6.3211    1.0000 </r>
       <r>   -6.3206    1.0000 </r>
       <r>   -6.3201    1.0000 </r>
       <r>   -6.0952    1.0000 </r>
       <r>   -6.0947    1.0000 </r>
       <r>   -6.0942    1.0000 </r>
       <r>   -5.8049    1.0000 </r>
       <r>   -5.7048    1.0000 </r>
       <r>   -5.7043    1.0000 </r>
       <r>   -5.7038    1.0000 </r>
       <r>   -5.6627    1.0000 </r>
       <r>   -5.6622    1.0000 </r>
       <r>   -5.6617    1.0000 </r>
       <r>   -5.2545    1.0000 </r>
       <r>   -5.1367    1.0000 </r>
       <r>   -5.1361    1.0000 </r>
       <r>   -5.1357    1.0000 </r>
       <r>   -5.1225    1.0000 </r>
       <r>   -5.1214    1.0000 </r>
       <r>   -5.1214    1.0000 </r>
       <r>   -5.1214    1.0000 </r>
       <r>   -5.1213    1.0000 </r>
       <r>   -5.1201    1.0000 </r>
       <r>   -4.9355    1.0000 </r>
       <r>   -4.9349    1.0000 </r>
       <r>   -4.9343    1.0000 </r>
       <r>   -4.9160    1.0000 </r>
       <r>   -4.9149    1.0000 </r>
       <r>   -4.9148    1.0000 </r>
       <r>   -4.9148    1.0000 </r>
       <r>   -4.9148    1.0000 </r>
       <r>   -4.9136    1.0000 </r>
       <r>   -4.8104    1.0000 </r>
       <r>   -4.8098    1.0000 </r>
       <r>   -4.8092    1.0000 </r>
       <r>   -4.6418    1.0000 </r>
       <r>   -4.6412    1.0000 </r>
       <r>   -4.6407    1.0000 </r>
       <r>   -4.3253    1.0000 </r>
       <r>   -4.3247    1.0000 </r>
       <r>   -4.3241    1.0000 </r>
       <r>   -4.2603    1.0000 </r>
       <r>   -4.2597    1.0000 </r>
       <r>   -4.2591    1.0000 </r>
       <r>   -4.1700    1.0000 </r>
       <r>   -4.1689    1.0000 </r>
       <r>   -4.1689    1.0000 </r>
       <r>   -4.1688    1.0000 </r>
       <r>   -4.1688    1.0000 </r>
       <r>   -4.1676    1.0000 </r>
       <r>   -3.8504    1.0000 </r>
       <r>   -3.8498    1.0000 </r>
       <r>   -3.8492    1.0000 </r>
       <r>   -3.7277    1.0000 </r>
       <r>   -3.7265    1.0000 </r>
       <r>   -3.7265    1.0000 </r>
       <r>   -3.7264    1.0000 </r>
       <r>   -3.7264    1.0000 </r>
       <r>   -3.7253    1.0000 </r>
       <r>   -2.3910    1.0000 </r>
       <r>   -2.3905    1.0000 </r>
       <r>   -2.3901    1.0000 </r>
       <r>   -2.3661    1.0000 </r>
       <r>   -2.3653    1.0000 </r>
       <r>   -2.3652    1.0000 </r>
       <r>   -2.3652    1.0000 </r>
       <r>   -2.3651    1.0000 </r>
       <r>   -2.3642    1.0000 </r>
       <r>   -1.9964    1.0000 </r>
       <r>   -1.9953    1.0000 </r>
       <r>   -1.9952    1.0000 </r>
       <r>   -1.9951    1.0000 </r>
       <r>   -1.9951    1.0000 </r>
       <r>   -1.9940    1.0000 </r>
       <r>   -1.9770    1.0000 </r>
       <r>   -1.9769    1.0000 </r>
       <r>   -1.9768    1.0000 </r>
       <r>   -1.9107    1.0000 </r>
       <r>   -1.9100    1.0000 </r>
       <r>   -1.9094    1.0000 </r>
       <r>   -1.8793    1.0000 </r>
       <r>   -1.8787    1.0000 </r>
       <r>   -1.8782    1.0000 </r>
       <r>   -1.7286    1.0000 </r>
       <r>   -1.7279    1.0000 </r>
       <r>   -1.7272    1.0000 </r>
       <r>   -1.5516    1.0000 </r>
       <r>   -1.5514    1.0000 </r>
       <r>   -1.5512    1.0000 </r>
       <r>   -1.5382    1.0000 </r>
       <r>   -1.2756    1.0000 </r>
       <r>   -1.2745    1.0000 </r>
       <r>   -1.2744    1.0000 </r>
       <r>   -1.2743    1.0000 </r>
       <r>   -1.2741    1.0000 </r>
       <r>   -1.2730    1.0000 </r>
       <r>   -0.9495    1.0000 </r>
       <r>   -0.9484    1.0000 </r>
       <r>   -0.9483    1.0000 </r>
       <r>   -0.9482    1.0000 </r>
       <r>   -0.9480    1.0000 </r>
       <r>   -0.9469    1.0000 </r>
       <r>   -0.8020    1.0000 </r>
       <r>   -0.8016    1.0000 </r>
       <r>   -0.8013    1.0000 </r>
       <r>   -0.4812    1.0000 </r>
       <r>   -0.1329    1.0000 </r>
       <r>   -0.1325    1.0000 </r>
       <r>   -0.1320    1.0000 </r>
       <r>    0.1553    1.0000 </r>
       <r>    0.1558    1.0000 </r>
       <r>    0.1562    1.0000 </r>
       <r>    0.3873    1.0000 </r>
       <r>    0.3878    1.0000 </r>
       <r>    0.3882    1.0000 </r>
       <r>    1.1235    1.0000 </r>
       <r>    1.1236    1.0000 </r>
       <r>    1.1239    1.0000 </r>
       <r>    1.1240    1.0000 </r>
       <r>    1.1243    1.0000 </r>
       <r>    1.1244    1.0000 </r>
       <r>    1.1410    1.0000 </r>
       <r>    1.1412    1.0000 </r>
       <r>    1.1415    1.0000 </r>
       <r>    1.2221    1.0000 </r>
       <r>    1.2223    1.0000 </r>
       <r>    1.2227    1.0000 </r>
       <r>    1.2228    1.0000 </r>
       <r>    1.2231    1.0000 </r>
       <r>    1.2232    1.0000 </r>
       <r>    1.2320    1.0000 </r>
       <r>    1.2323    1.0000 </r>
       <r>    1.2327    1.0000 </r>
       <r>    1.3283    1.0000 </r>
       <r>    1.3288    1.0000 </r>
       <r>    1.3293    1.0000 </r>
       <r>    1.4962    1.0000 </r>
       <r>    1.4967    1.0000 </r>
       <r>    1.4973    1.0000 </r>
       <r>    1.5358    1.0000 </r>
       <r>    1.5361    1.0000 </r>
       <r>    1.5363    1.0000 </r>
       <r>    1.6064    1.0000 </r>
       <r>    1.6066    1.0000 </r>
       <r>    1.6069    1.0000 </r>
       <r>    1.6070    1.0000 </r>
       <r>    1.6073    1.0000 </r>
       <r>    1.6075    1.0000 </r>
       <r>    1.8445    1.0000 </r>
       <r>    1.8447    1.0000 </r>
       <r>    1.8451    1.0000 </r>
       <r>    1.8452    1.0000 </r>
       <r>    1.8455    1.0000 </r>
       <r>    1.8458    1.0000 </r>
       <r>    1.8637    1.0000 </r>
       <r>    1.8641    1.0000 </r>
       <r>    1.8643    1.0000 </r>
       <r>    1.8644    1.0000 </r>
       <r>    1.8646    1.0000 </r>
       <r>    1.8651    1.0000 </r>
       <r>    1.9431    1.0000 </r>
       <r>    1.9433    1.0000 </r>
       <r>    1.9435    1.0000 </r>
       <r>    2.1113    1.0000 </r>
       <r>    2.1118    1.0000 </r>
       <r>    2.1122    1.0000 </r>
       <r>    2.1886    1.0000 </r>
       <r>    2.1890    1.0000 </r>
       <r>    2.1894    1.0000 </r>
       <r>    2.2268    1.0000 </r>
       <r>    2.2272    1.0000 </r>
       <r>    2.2275    1.0000 </r>
       <r>    2.2967    1.0000 </r>
       <r>    2.2969    1.0000 </r>
       <r>    2.2972    1.0000 </r>
       <r>    2.4089    1.0000 </r>
       <r>    2.4849    1.0000 </r>
       <r>    2.4854    1.0000 </r>
       <r>    2.4856    1.0000 </r>
       <r>    2.4857    1.0000 </r>
       <r>    2.4859    1.0000 </r>
       <r>    2.4864    1.0000 </r>
       <r>    2.5182    1.0000 </r>
       <r>    2.5185    1.0000 </r>
       <r>    2.5188    1.0000 </r>
       <r>    2.7326    1.0000 </r>
       <r>    2.7330    1.0000 </r>
       <r>    2.7335    1.0000 </r>
       <r>    2.8319    1.0000 </r>
       <r>    2.8323    1.0000 </r>
       <r>    2.8327    1.0000 </r>
       <r>    2.9465    1.0000 </r>
       <r>    2.9469    1.0000 </r>
       <r>    2.9473    1.0000 </r>
       <r>    2.9621    1.0000 </r>
       <r>    2.9623    1.0000 </r>
       <r>    2.9626    1.0000 </r>
       <r>    2.9626    1.0000 </r>
       <r>    2.9629    1.0000 </r>
       <r>    2.9631    1.0000 </r>
       <r>    3.0375    1.0000 </r>
       <r>    3.0379    1.0000 </r>
       <r>    3.0384    1.0000 </r>
       <r>    3.1926    1.0000 </r>
       <r>    3.1930    1.0000 </r>
       <r>    3.1933    1.0000 </r>
       <r>    3.2819    1.0000 </r>
       <r>    3.2822    1.0000 </r>
       <r>    3.2825    1.0000 </r>
       <r>    3.3372    1.0000 </r>
       <r>    3.3377    1.0000 </r>
       <r>    3.3382    1.0000 </r>
       <r>    3.3445    1.0000 </r>
       <r>    3.3449    1.0000 </r>
       <r>    3.3453    1.0000 </r>
       <r>    3.4114    1.0000 </r>
       <r>    3.4117    1.0000 </r>
       <r>    3.4121    1.0000 </r>
       <r>    3.4121    1.0000 </r>
       <r>    3.4124    1.0000 </r>
       <r>    3.4128    1.0000 </r>
       <r>    3.5033    1.0000 </r>
       <r>    3.5033    1.0000 </r>
       <r>    3.5034    1.0000 </r>
       <r>    3.5629    1.0000 </r>
       <r>    3.5633    1.0000 </r>
       <r>    3.5638    1.0000 </r>
       <r>    3.6648    1.0000 </r>
       <r>    3.6651    1.0000 </r>
       <r>    3.6655    1.0000 </r>
       <r>    3.8854    1.0000 </r>
       <r>    3.8864    1.0000 </r>
       <r>    3.9760    1.0000 </r>
       <r>    3.9764    1.0000 </r>
       <r>    3.9769    1.0000 </r>
       <r>    4.0025    1.0000 </r>
       <r>    4.0471    1.0000 </r>
       <r>    4.0480    1.0000 </r>
       <r>    4.0678    1.0000 </r>
       <r>    4.0680    1.0000 </r>
       <r>    4.0682    1.0000 </r>
       <r>    4.1192    1.0000 </r>
       <r>    4.1198    1.0000 </r>
       <r>    4.1203    1.0000 </r>
       <r>    4.3675    1.0000 </r>
       <r>    4.3680    1.0000 </r>
       <r>    4.3686    1.0000 </r>
       <r>    4.6354    1.0000 </r>
       <r>    4.6364    1.0000 </r>
       <r>    4.9585    1.0000 </r>
       <r>    4.9597    1.0000 </r>
       <r>    5.9333    0.0000 </r>
       <r>    5.9339    0.0000 </r>
       <r>    5.9345    0.0000 </r>
       <r>    5.9532    0.0000 </r>
       <r>    6.1230    0.0000 </r>
       <r>    6.2202    0.0000 </r>
       <r>    6.2207    0.0000 </r>
       <r>    6.2212    0.0000 </r>
       <r>    6.3081    0.0000 </r>
       <r>    6.3087    0.0000 </r>
       <r>    6.3094    0.0000 </r>
       <r>    6.5317    0.0000 </r>
       <r>    6.5320    0.0000 </r>
       <r>    6.5323    0.0000 </r>
       <r>    6.5423    0.0000 </r>
       <r>    6.5430    0.0000 </r>
       <r>    6.5437    0.0000 </r>
       <r>    6.5600    0.0000 </r>
       <r>    6.5603    0.0000 </r>
       <r>    6.5606    0.0000 </r>
       <r>    6.7110    0.0000 </r>
       <r>    6.7696    0.0000 </r>
       <r>    6.7702    0.0000 </r>
       <r>    6.7708    0.0000 </r>
       <r>    6.7854    0.0000 </r>
       <r>    6.7859    0.0000 </r>
       <r>    6.7863    0.0000 </r>
       <r>    6.8717    0.0000 </r>
       <r>    6.8720    0.0000 </r>
       <r>    6.8723    0.0000 </r>
       <r>    6.8976    0.0000 </r>
       <r>    6.9731    0.0000 </r>
       <r>    6.9736    0.0000 </r>
       <r>    6.9742    0.0000 </r>
       <r>    6.9825    0.0000 </r>
       <r>    6.9831    0.0000 </r>
       <r>    6.9832    0.0000 </r>
       <r>    6.9833    0.0000 </r>
       <r>    6.9835    0.0000 </r>
       <r>    6.9841    0.0000 </r>
       <r>    7.0272    0.0000 </r>
       <r>    7.0278    0.0000 </r>
       <r>    7.0283    0.0000 </r>
       <r>    7.1160    0.0000 </r>
       <r>    7.1164    0.0000 </r>
       <r>    7.1168    0.0000 </r>
       <r>    7.2775    0.0000 </r>
       <r>    7.2784    0.0000 </r>
       <r>    7.2785    0.0000 </r>
       <r>    7.2786    0.0000 </r>
       <r>    7.2787    0.0000 </r>
       <r>    7.2796    0.0000 </r>
       <r>    7.4295    0.0000 </r>
       <r>    7.4300    0.0000 </r>
       <r>    7.4305    0.0000 </r>
       <r>    7.7996    0.0000 </r>
       <r>    7.8003    0.0000 </r>
       <r>    7.8004    0.0000 </r>
       <r>    7.8004    0.0000 </r>
       <r>    7.8006    0.0000 </r>
       <r>    7.8012    0.0000 </r>
       <r>    7.8482    0.0000 </r>
       <r>    7.8490    0.0000 </r>
       <r>    7.8504    0.0000 </r>
       <r>    7.8509    0.0000 </r>
       <r>    7.8514    0.0000 </r>
       <r>    7.8678    0.0000 </r>
       <r>    7.8679    0.0000 </r>
       <r>    7.8681    0.0000 </r>
       <r>    8.0456    0.0000 </r>
       <r>    8.0460    0.0000 </r>
       <r>    8.0464    0.0000 </r>
       <r>    8.1002    0.0000 </r>
       <r>    8.1009    0.0000 </r>
       <r>    8.1011    0.0000 </r>
       <r>    8.1012    0.0000 </r>
       <r>    8.1014    0.0000 </r>
       <r>    8.1021    0.0000 </r>
       <r>    8.1577    0.0000 </r>
       <r>    8.2900    0.0000 </r>
       <r>    8.2908    0.0000 </r>
       <r>    8.3256    0.0000 </r>
       <r>    8.3259    0.0000 </r>
       <r>    8.3262    0.0000 </r>
       <r>    8.4400    0.0000 </r>
       <r>    8.4402    0.0000 </r>
       <r>    8.4404    0.0000 </r>
       <r>    8.5274    0.0000 </r>
       <r>    8.5278    0.0000 </r>
       <r>    8.5281    0.0000 </r>
       <r>    8.6024    0.0000 </r>
       <r>    8.6026    0.0000 </r>
       <r>    8.6028    0.0000 </r>
       <r>    8.6875    0.0000 </r>
       <r>    8.6887    0.0000 </r>
       <r>    8.7036    0.0000 </r>
       <r>    8.7045    0.0000 </r>
       <r>    8.7046    0.0000 </r>
       <r>    8.7046    0.0000 </r>
       <r>    8.7047    0.0000 </r>
       <r>    8.7057    0.0000 </r>
       <r>    8.7327    0.0000 </r>
       <r>    8.7339    0.0000 </r>
       <r>    8.8933    0.0000 </r>
       <r>    8.8937    0.0000 </r>
       <r>    8.8940    0.0000 </r>
       <r>    8.9650    0.0000 </r>
       <r>    8.9654    0.0000 </r>
       <r>    8.9659    0.0000 </r>
       <r>    8.9886    0.0000 </r>
       <r>    8.9886    0.0000 </r>
       <r>    8.9886    0.0000 </r>
       <r>    9.0858    0.0000 </r>
       <r>    9.0862    0.0000 </r>
       <r>    9.0866    0.0000 </r>
       <r>    9.1006    0.0000 </r>
       <r>    9.1010    0.0000 </r>
       <r>    9.1011    0.0000 </r>
       <r>    9.1013    0.0000 </r>
       <r>    9.1013    0.0000 </r>
       <r>    9.1018    0.0000 </r>
       <r>    9.1712    0.0000 </r>
       <r>    9.1714    0.0000 </r>
       <r>    9.1717    0.0000 </r>
       <r>    9.2191    0.0000 </r>
       <r>    9.2196    0.0000 </r>
       <r>    9.2208    0.0000 </r>
       <r>    9.4046    0.0000 </r>
      </set>
      <set comment="kpoint 4">
       <r>  -19.2237    1.0000 </r>
       <r>  -19.2237    1.0000 </r>
       <r>  -19.2237    1.0000 </r>
       <r>  -19.2222    1.0000 </r>
       <r>  -19.2221    1.0000 </r>
       <r>  -19.2221    1.0000 </r>
       <r>  -19.2217    1.0000 </r>
       <r>  -19.2216    1.0000 </r>
       <r>  -19.2216    1.0000 </r>
       <r>  -19.2212    1.0000 </r>
       <r>  -19.2212    1.0000 </r>
       <r>  -19.2212    1.0000 </r>
       <r>  -19.2205    1.0000 </r>
       <r>  -19.2205    1.0000 </r>
       <r>  -19.2203    1.0000 </r>
       <r>  -19.2201    1.0000 </r>
       <r>  -19.2201    1.0000 </r>
       <r>  -19.2200    1.0000 </r>
       <r>  -19.2200    1.0000 </r>
       <r>  -19.2199    1.0000 </r>
       <r>  -19.2199    1.0000 </r>
       <r>  -19.2196    1.0000 </r>
       <r>  -19.2196    1.0000 </r>
       <r>  -19.2196    1.0000 </r>
       <r>  -19.2195    1.0000 </r>
       <r>  -19.2195    1.0000 </r>
       <r>  -19.2194    1.0000 </r>
       <r>  -19.2192    1.0000 </r>
       <r>  -19.2192    1.0000 </r>
       <r>  -19.2192    1.0000 </r>
       <r>  -19.2191    1.0000 </r>
       <r>  -19.2191    1.0000 </r>
       <r>  -19.2191    1.0000 </r>
       <r>  -19.2190    1.0000 </r>
       <r>  -19.2189    1.0000 </r>
       <r>  -19.2189    1.0000 </r>
       <r>  -19.2186    1.0000 </r>
       <r>  -19.2186    1.0000 </r>
       <r>  -19.2186    1.0000 </r>
       <r>  -19.2185    1.0000 </r>
       <r>  -19.2185    1.0000 </r>
       <r>  -19.2185    1.0000 </r>
       <r>  -19.2184    1.0000 </r>
       <r>  -19.2183    1.0000 </r>
       <r>  -19.2182    1.0000 </r>
       <r>  -19.2182    1.0000 </r>
       <r>  -19.2181    1.0000 </r>
       <r>  -19.2181    1.0000 </r>
       <r>  -19.2181    1.0000 </r>
       <r>  -19.2181    1.0000 </r>
       <r>  -19.2180    1.0000 </r>
       <r>  -19.2180    1.0000 </r>
       <r>  -19.2179    1.0000 </r>
       <r>  -19.2179    1.0000 </r>
       <r>  -19.2179    1.0000 </r>
       <r>  -19.2178    1.0000 </r>
       <r>  -19.2178    1.0000 </r>
       <r>  -19.2178    1.0000 </r>
       <r>  -19.2178    1.0000 </r>
       <r>  -19.2177    1.0000 </r>
       <r>  -19.2177    1.0000 </r>
       <r>  -19.2176    1.0000 </r>
       <r>  -19.2176    1.0000 </r>
       <r>  -19.2175    1.0000 </r>
       <r>  -19.2174    1.0000 </r>
       <r>  -19.2173    1.0000 </r>
       <r>  -19.2166    1.0000 </r>
       <r>  -19.2165    1.0000 </r>
       <r>  -19.2155    1.0000 </r>
       <r>  -19.2154    1.0000 </r>
       <r>  -19.2153    1.0000 </r>
       <r>  -19.2153    1.0000 </r>
       <r>  -19.2151    1.0000 </r>
       <r>  -19.2151    1.0000 </r>
       <r>  -19.2150    1.0000 </r>
       <r>  -19.2150    1.0000 </r>
       <r>  -19.2148    1.0000 </r>
       <r>  -19.2145    1.0000 </r>
       <r>  -19.2145    1.0000 </r>
       <r>  -19.2145    1.0000 </r>
       <r>  -19.2143    1.0000 </r>
       <r>  -19.2143    1.0000 </r>
       <r>  -19.2142    1.0000 </r>
       <r>  -19.2141    1.0000 </r>
       <r>  -19.2141    1.0000 </r>
       <r>  -19.2141    1.0000 </r>
       <r>  -19.2140    1.0000 </r>
       <r>  -19.2139    1.0000 </r>
       <r>  -19.2138    1.0000 </r>
       <r>  -19.2138    1.0000 </r>
       <r>  -19.2137    1.0000 </r>
       <r>  -19.2137    1.0000 </r>
       <r>  -19.2137    1.0000 </r>
       <r>  -19.2137    1.0000 </r>
       <r>  -19.2135    1.0000 </r>
       <r>  -19.2135    1.0000 </r>
       <r>  -19.2134    1.0000 </r>
       <r>  -19.2134    1.0000 </r>
       <r>  -19.2133    1.0000 </r>
       <r>  -19.2133    1.0000 </r>
       <r>  -19.2132    1.0000 </r>
       <r>  -19.2132    1.0000 </r>
       <r>  -19.2132    1.0000 </r>
       <r>  -19.2131    1.0000 </r>
       <r>  -19.2130    1.0000 </r>
       <r>  -19.2129    1.0000 </r>
       <r>  -19.2129    1.0000 </r>
       <r>  -19.2127    1.0000 </r>
       <r>  -19.2127    1.0000 </r>
       <r>  -19.2127    1.0000 </r>
       <r>  -19.2126    1.0000 </r>
       <r>  -19.2126    1.0000 </r>
       <r>  -19.2126    1.0000 </r>
       <r>  -19.2125    1.0000 </r>
       <r>  -19.2124    1.0000 </r>
       <r>  -19.2124    1.0000 </r>
       <r>  -19.2124    1.0000 </r>
       <r>  -19.2123    1.0000 </r>
       <r>  -19.2123    1.0000 </r>
       <r>  -19.2122    1.0000 </r>
       <r>  -19.2122    1.0000 </r>
       <r>  -19.2122    1.0000 </r>
       <r>  -19.2121    1.0000 </r>
       <r>  -19.2121    1.0000 </r>
       <r>  -19.2120    1.0000 </r>
       <r>  -19.2119    1.0000 </r>
       <r>  -19.2118    1.0000 </r>
       <r>  -19.2118    1.0000 </r>
       <r>  -19.2117    1.0000 </r>
       <r>  -19.2117    1.0000 </r>
       <r>  -19.2117    1.0000 </r>
       <r>  -19.2116    1.0000 </r>
       <r>  -19.2116    1.0000 </r>
       <r>  -19.2116    1.0000 </r>
       <r>  -19.2116    1.0000 </r>
       <r>  -19.2115    1.0000 </r>
       <r>  -19.2115    1.0000 </r>
       <r>  -19.2114    1.0000 </r>
       <r>  -19.2114    1.0000 </r>
       <r>  -19.2114    1.0000 </r>
       <r>  -19.2114    1.0000 </r>
       <r>  -19.2114    1.0000 </r>
       <r>  -19.2113    1.0000 </r>
       <r>  -19.2112    1.0000 </r>
       <r>  -19.2112    1.0000 </r>
       <r>  -19.2112    1.0000 </r>
       <r>  -19.2111    1.0000 </r>
       <r>  -19.2111    1.0000 </r>
       <r>  -19.2111    1.0000 </r>
       <r>  -19.2110    1.0000 </r>
       <r>  -19.2110    1.0000 </r>
       <r>  -19.2109    1.0000 </r>
       <r>  -19.2109    1.0000 </r>
       <r>  -19.2108    1.0000 </r>
       <r>  -19.2107    1.0000 </r>
       <r>  -19.2107    1.0000 </r>
       <r>  -19.2106    1.0000 </r>
       <r>  -19.2106    1.0000 </r>
       <r>  -19.2105    1.0000 </r>
       <r>  -19.2105    1.0000 </r>
       <r>  -19.2105    1.0000 </r>
       <r>  -19.2104    1.0000 </r>
       <r>  -19.2103    1.0000 </r>
       <r>  -19.2103    1.0000 </r>
       <r>  -19.2102    1.0000 </r>
       <r>  -19.2101    1.0000 </r>
       <r>  -19.2099    1.0000 </r>
       <r>  -19.2098    1.0000 </r>
       <r>  -19.2093    1.0000 </r>
       <r>  -19.2092    1.0000 </r>
       <r>  -19.2090    1.0000 </r>
       <r>  -19.2089    1.0000 </r>
       <r>  -19.2089    1.0000 </r>
       <r>  -19.2088    1.0000 </r>
       <r>  -19.2087    1.0000 </r>
       <r>  -19.2087    1.0000 </r>
       <r>  -19.2086    1.0000 </r>
       <r>  -19.2086    1.0000 </r>
       <r>  -19.2083    1.0000 </r>
       <r>  -19.2083    1.0000 </r>
       <r>  -19.2078    1.0000 </r>
       <r>  -19.2078    1.0000 </r>
       <r>  -19.2077    1.0000 </r>
       <r>  -19.2077    1.0000 </r>
       <r>  -19.2076    1.0000 </r>
       <r>  -19.2076    1.0000 </r>
       <r>  -19.2076    1.0000 </r>
       <r>  -19.2076    1.0000 </r>
       <r>  -19.2075    1.0000 </r>
       <r>  -19.2072    1.0000 </r>
       <r>  -19.2071    1.0000 </r>
       <r>  -19.2069    1.0000 </r>
       <r>  -19.1966    1.0000 </r>
       <r>  -19.1966    1.0000 </r>
       <r>  -19.1960    1.0000 </r>
       <r>  -19.1956    1.0000 </r>
       <r>  -19.1956    1.0000 </r>
       <r>  -19.1952    1.0000 </r>
       <r>  -19.1951    1.0000 </r>
       <r>  -19.1951    1.0000 </r>
       <r>  -19.1947    1.0000 </r>
       <r>  -19.1947    1.0000 </r>
       <r>  -19.1946    1.0000 </r>
       <r>  -19.1945    1.0000 </r>
       <r>  -19.1945    1.0000 </r>
       <r>  -19.1944    1.0000 </r>
       <r>  -19.1944    1.0000 </r>
       <r>  -19.1943    1.0000 </r>
       <r>  -19.1943    1.0000 </r>
       <r>  -19.1942    1.0000 </r>
       <r>  -19.1941    1.0000 </r>
       <r>  -19.1941    1.0000 </r>
       <r>  -19.1941    1.0000 </r>
       <r>  -19.1940    1.0000 </r>
       <r>  -19.1940    1.0000 </r>
       <r>  -19.1939    1.0000 </r>
       <r>  -19.1937    1.0000 </r>
       <r>  -19.1937    1.0000 </r>
       <r>  -19.1936    1.0000 </r>
       <r>  -19.1935    1.0000 </r>
       <r>  -19.1935    1.0000 </r>
       <r>  -19.1934    1.0000 </r>
       <r>  -19.1934    1.0000 </r>
       <r>  -19.1934    1.0000 </r>
       <r>  -19.1933    1.0000 </r>
       <r>  -19.1933    1.0000 </r>
       <r>  -19.1932    1.0000 </r>
       <r>  -19.1931    1.0000 </r>
       <r>  -19.1929    1.0000 </r>
       <r>  -19.1929    1.0000 </r>
       <r>  -19.1928    1.0000 </r>
       <r>  -19.1928    1.0000 </r>
       <r>  -19.1928    1.0000 </r>
       <r>  -19.1927    1.0000 </r>
       <r>  -19.1927    1.0000 </r>
       <r>  -19.1927    1.0000 </r>
       <r>  -19.1927    1.0000 </r>
       <r>  -19.1926    1.0000 </r>
       <r>  -19.1926    1.0000 </r>
       <r>  -19.1925    1.0000 </r>
       <r>  -19.1925    1.0000 </r>
       <r>  -19.1924    1.0000 </r>
       <r>  -19.1924    1.0000 </r>
       <r>  -19.1924    1.0000 </r>
       <r>  -19.1923    1.0000 </r>
       <r>  -19.1923    1.0000 </r>
       <r>  -19.1923    1.0000 </r>
       <r>  -19.1923    1.0000 </r>
       <r>  -19.1922    1.0000 </r>
       <r>  -19.1922    1.0000 </r>
       <r>  -19.1921    1.0000 </r>
       <r>  -19.1920    1.0000 </r>
       <r>  -19.1920    1.0000 </r>
       <r>  -19.1917    1.0000 </r>
       <r>  -19.1917    1.0000 </r>
       <r>  -19.1916    1.0000 </r>
       <r>  -19.1916    1.0000 </r>
       <r>  -19.1915    1.0000 </r>
       <r>  -19.1915    1.0000 </r>
       <r>  -19.1915    1.0000 </r>
       <r>  -19.1915    1.0000 </r>
       <r>  -19.1914    1.0000 </r>
       <r>  -19.1914    1.0000 </r>
       <r>  -19.1913    1.0000 </r>
       <r>  -19.1913    1.0000 </r>
       <r>  -19.1913    1.0000 </r>
       <r>  -19.1913    1.0000 </r>
       <r>  -19.1912    1.0000 </r>
       <r>  -19.1912    1.0000 </r>
       <r>  -19.1912    1.0000 </r>
       <r>  -19.1912    1.0000 </r>
       <r>  -19.1911    1.0000 </r>
       <r>  -19.1911    1.0000 </r>
       <r>  -19.1910    1.0000 </r>
       <r>  -19.1909    1.0000 </r>
       <r>  -19.1909    1.0000 </r>
       <r>  -19.1909    1.0000 </r>
       <r>  -19.1908    1.0000 </r>
       <r>  -19.1908    1.0000 </r>
       <r>  -19.1908    1.0000 </r>
       <r>  -19.1907    1.0000 </r>
       <r>  -19.1907    1.0000 </r>
       <r>  -19.1906    1.0000 </r>
       <r>  -19.1906    1.0000 </r>
       <r>  -19.1905    1.0000 </r>
       <r>  -19.1905    1.0000 </r>
       <r>  -19.1904    1.0000 </r>
       <r>  -19.1904    1.0000 </r>
       <r>  -19.1903    1.0000 </r>
       <r>  -19.1903    1.0000 </r>
       <r>  -19.1903    1.0000 </r>
       <r>  -19.1902    1.0000 </r>
       <r>  -19.1902    1.0000 </r>
       <r>  -19.1901    1.0000 </r>
       <r>  -19.1899    1.0000 </r>
       <r>  -19.1899    1.0000 </r>
       <r>  -19.1899    1.0000 </r>
       <r>  -19.1899    1.0000 </r>
       <r>  -19.1899    1.0000 </r>
       <r>  -19.1898    1.0000 </r>
       <r>  -19.1898    1.0000 </r>
       <r>  -19.1898    1.0000 </r>
       <r>  -19.1898    1.0000 </r>
       <r>  -19.1897    1.0000 </r>
       <r>  -19.1897    1.0000 </r>
       <r>  -19.1896    1.0000 </r>
       <r>  -19.1896    1.0000 </r>
       <r>  -19.1895    1.0000 </r>
       <r>  -19.1895    1.0000 </r>
       <r>  -19.1894    1.0000 </r>
       <r>  -19.1893    1.0000 </r>
       <r>  -19.1893    1.0000 </r>
       <r>  -19.1890    1.0000 </r>
       <r>  -19.1890    1.0000 </r>
       <r>  -19.1889    1.0000 </r>
       <r>  -19.1883    1.0000 </r>
       <r>  -19.1883    1.0000 </r>
       <r>  -19.1882    1.0000 </r>
       <r>  -19.1875    1.0000 </r>
       <r>  -19.1874    1.0000 </r>
       <r>   -6.9934    1.0000 </r>
       <r>   -6.7412    1.0000 </r>
       <r>   -6.4106    1.0000 </r>
       <r>   -6.4103    1.0000 </r>
       <r>   -6.4100    1.0000 </r>
       <r>   -6.3209    1.0000 </r>
       <r>   -6.3206    1.0000 </r>
       <r>   -6.3203    1.0000 </r>
       <r>   -6.0950    1.0000 </r>
       <r>   -6.0947    1.0000 </r>
       <r>   -6.0944    1.0000 </r>
       <r>   -5.8050    1.0000 </r>
       <r>   -5.7047    1.0000 </r>
       <r>   -5.7043    1.0000 </r>
       <r>   -5.7041    1.0000 </r>
       <r>   -5.6625    1.0000 </r>
       <r>   -5.6622    1.0000 </r>
       <r>   -5.6619    1.0000 </r>
       <r>   -5.2547    1.0000 </r>
       <r>   -5.1366    1.0000 </r>
       <r>   -5.1362    1.0000 </r>
       <r>   -5.1360    1.0000 </r>
       <r>   -5.1221    1.0000 </r>
       <r>   -5.1215    1.0000 </r>
       <r>   -5.1214    1.0000 </r>
       <r>   -5.1213    1.0000 </r>
       <r>   -5.1213    1.0000 </r>
       <r>   -5.1202    1.0000 </r>
       <r>   -4.9353    1.0000 </r>
       <r>   -4.9349    1.0000 </r>
       <r>   -4.9343    1.0000 </r>
       <r>   -4.9156    1.0000 </r>
       <r>   -4.9149    1.0000 </r>
       <r>   -4.9148    1.0000 </r>
       <r>   -4.9148    1.0000 </r>
       <r>   -4.9147    1.0000 </r>
       <r>   -4.9137    1.0000 </r>
       <r>   -4.8102    1.0000 </r>
       <r>   -4.8098    1.0000 </r>
       <r>   -4.8092    1.0000 </r>
       <r>   -4.6417    1.0000 </r>
       <r>   -4.6412    1.0000 </r>
       <r>   -4.6411    1.0000 </r>
       <r>   -4.3254    1.0000 </r>
       <r>   -4.3247    1.0000 </r>
       <r>   -4.3247    1.0000 </r>
       <r>   -4.2601    1.0000 </r>
       <r>   -4.2597    1.0000 </r>
       <r>   -4.2591    1.0000 </r>
       <r>   -4.1697    1.0000 </r>
       <r>   -4.1690    1.0000 </r>
       <r>   -4.1688    1.0000 </r>
       <r>   -4.1688    1.0000 </r>
       <r>   -4.1688    1.0000 </r>
       <r>   -4.1677    1.0000 </r>
       <r>   -3.8503    1.0000 </r>
       <r>   -3.8498    1.0000 </r>
       <r>   -3.8492    1.0000 </r>
       <r>   -3.7275    1.0000 </r>
       <r>   -3.7266    1.0000 </r>
       <r>   -3.7265    1.0000 </r>
       <r>   -3.7265    1.0000 </r>
       <r>   -3.7264    1.0000 </r>
       <r>   -3.7254    1.0000 </r>
       <r>   -2.3909    1.0000 </r>
       <r>   -2.3905    1.0000 </r>
       <r>   -2.3903    1.0000 </r>
       <r>   -2.3658    1.0000 </r>
       <r>   -2.3653    1.0000 </r>
       <r>   -2.3652    1.0000 </r>
       <r>   -2.3652    1.0000 </r>
       <r>   -2.3650    1.0000 </r>
       <r>   -2.3648    1.0000 </r>
       <r>   -1.9961    1.0000 </r>
       <r>   -1.9953    1.0000 </r>
       <r>   -1.9952    1.0000 </r>
       <r>   -1.9952    1.0000 </r>
       <r>   -1.9949    1.0000 </r>
       <r>   -1.9948    1.0000 </r>
       <r>   -1.9771    1.0000 </r>
       <r>   -1.9769    1.0000 </r>
       <r>   -1.9751    1.0000 </r>
       <r>   -1.9108    1.0000 </r>
       <r>   -1.9101    1.0000 </r>
       <r>   -1.9099    1.0000 </r>
       <r>   -1.8792    1.0000 </r>
       <r>   -1.8788    1.0000 </r>
       <r>   -1.8786    1.0000 </r>
       <r>   -1.7286    1.0000 </r>
       <r>   -1.7279    1.0000 </r>
       <r>   -1.7278    1.0000 </r>
       <r>   -1.5516    1.0000 </r>
       <r>   -1.5514    1.0000 </r>
       <r>   -1.5500    1.0000 </r>
       <r>   -1.5377    1.0000 </r>
       <r>   -1.2755    1.0000 </r>
       <r>   -1.2744    1.0000 </r>
       <r>   -1.2744    1.0000 </r>
       <r>   -1.2743    1.0000 </r>
       <r>   -1.2741    1.0000 </r>
       <r>   -1.2741    1.0000 </r>
       <r>   -0.9495    1.0000 </r>
       <r>   -0.9483    1.0000 </r>
       <r>   -0.9483    1.0000 </r>
       <r>   -0.9482    1.0000 </r>
       <r>   -0.9481    1.0000 </r>
       <r>   -0.9480    1.0000 </r>
       <r>   -0.8019    1.0000 </r>
       <r>   -0.8017    1.0000 </r>
       <r>   -0.8004    1.0000 </r>
       <r>   -0.4808    1.0000 </r>
       <r>   -0.1328    1.0000 </r>
       <r>   -0.1325    1.0000 </r>
       <r>   -0.1319    1.0000 </r>
       <r>    0.1554    1.0000 </r>
       <r>    0.1558    1.0000 </r>
       <r>    0.1567    1.0000 </r>
       <r>    0.3874    1.0000 </r>
       <r>    0.3878    1.0000 </r>
       <r>    0.3880    1.0000 </r>
       <r>    1.1235    1.0000 </r>
       <r>    1.1237    1.0000 </r>
       <r>    1.1239    1.0000 </r>
       <r>    1.1240    1.0000 </r>
       <r>    1.1242    1.0000 </r>
       <r>    1.1244    1.0000 </r>
       <r>    1.1408    1.0000 </r>
       <r>    1.1411    1.0000 </r>
       <r>    1.1414    1.0000 </r>
       <r>    1.2221    1.0000 </r>
       <r>    1.2223    1.0000 </r>
       <r>    1.2227    1.0000 </r>
       <r>    1.2228    1.0000 </r>
       <r>    1.2230    1.0000 </r>
       <r>    1.2231    1.0000 </r>
       <r>    1.2318    1.0000 </r>
       <r>    1.2322    1.0000 </r>
       <r>    1.2326    1.0000 </r>
       <r>    1.3282    1.0000 </r>
       <r>    1.3287    1.0000 </r>
       <r>    1.3288    1.0000 </r>
       <r>    1.4961    1.0000 </r>
       <r>    1.4967    1.0000 </r>
       <r>    1.4967    1.0000 </r>
       <r>    1.5361    1.0000 </r>
       <r>    1.5362    1.0000 </r>
       <r>    1.5366    1.0000 </r>
       <r>    1.6063    1.0000 </r>
       <r>    1.6063    1.0000 </r>
       <r>    1.6069    1.0000 </r>
       <r>    1.6071    1.0000 </r>
       <r>    1.6072    1.0000 </r>
       <r>    1.6075    1.0000 </r>
       <r>    1.8443    1.0000 </r>
       <r>    1.8443    1.0000 </r>
       <r>    1.8451    1.0000 </r>
       <r>    1.8452    1.0000 </r>
       <r>    1.8453    1.0000 </r>
       <r>    1.8455    1.0000 </r>
       <r>    1.8640    1.0000 </r>
       <r>    1.8641    1.0000 </r>
       <r>    1.8643    1.0000 </r>
       <r>    1.8643    1.0000 </r>
       <r>    1.8647    1.0000 </r>
       <r>    1.8649    1.0000 </r>
       <r>    1.9432    1.0000 </r>
       <r>    1.9434    1.0000 </r>
       <r>    1.9438    1.0000 </r>
       <r>    2.1113    1.0000 </r>
       <r>    2.1117    1.0000 </r>
       <r>    2.1119    1.0000 </r>
       <r>    2.1889    1.0000 </r>
       <r>    2.1892    1.0000 </r>
       <r>    2.1893    1.0000 </r>
       <r>    2.2272    1.0000 </r>
       <r>    2.2274    1.0000 </r>
       <r>    2.2281    1.0000 </r>
       <r>    2.2966    1.0000 </r>
       <r>    2.2969    1.0000 </r>
       <r>    2.2969    1.0000 </r>
       <r>    2.4093    1.0000 </r>
       <r>    2.4853    1.0000 </r>
       <r>    2.4854    1.0000 </r>
       <r>    2.4856    1.0000 </r>
       <r>    2.4856    1.0000 </r>
       <r>    2.4859    1.0000 </r>
       <r>    2.4864    1.0000 </r>
       <r>    2.5182    1.0000 </r>
       <r>    2.5185    1.0000 </r>
       <r>    2.5185    1.0000 </r>
       <r>    2.7327    1.0000 </r>
       <r>    2.7331    1.0000 </r>
       <r>    2.7331    1.0000 </r>
       <r>    2.8319    1.0000 </r>
       <r>    2.8322    1.0000 </r>
       <r>    2.8324    1.0000 </r>
       <r>    2.9465    1.0000 </r>
       <r>    2.9468    1.0000 </r>
       <r>    2.9470    1.0000 </r>
       <r>    2.9624    1.0000 </r>
       <r>    2.9625    1.0000 </r>
       <r>    2.9627    1.0000 </r>
       <r>    2.9627    1.0000 </r>
       <r>    2.9630    1.0000 </r>
       <r>    2.9642    1.0000 </r>
       <r>    3.0375    1.0000 </r>
       <r>    3.0379    1.0000 </r>
       <r>    3.0381    1.0000 </r>
       <r>    3.1929    1.0000 </r>
       <r>    3.1932    1.0000 </r>
       <r>    3.1940    1.0000 </r>
       <r>    3.2817    1.0000 </r>
       <r>    3.2821    1.0000 </r>
       <r>    3.2821    1.0000 </r>
       <r>    3.3372    1.0000 </r>
       <r>    3.3376    1.0000 </r>
       <r>    3.3378    1.0000 </r>
       <r>    3.3447    1.0000 </r>
       <r>    3.3450    1.0000 </r>
       <r>    3.3456    1.0000 </r>
       <r>    3.4119    1.0000 </r>
       <r>    3.4119    1.0000 </r>
       <r>    3.4120    1.0000 </r>
       <r>    3.4120    1.0000 </r>
       <r>    3.4125    1.0000 </r>
       <r>    3.4137    1.0000 </r>
       <r>    3.5034    1.0000 </r>
       <r>    3.5034    1.0000 </r>
       <r>    3.5046    1.0000 </r>
       <r>    3.5629    1.0000 </r>
       <r>    3.5632    1.0000 </r>
       <r>    3.5634    1.0000 </r>
       <r>    3.6645    1.0000 </r>
       <r>    3.6649    1.0000 </r>
       <r>    3.6650    1.0000 </r>
       <r>    3.8855    1.0000 </r>
       <r>    3.8861    1.0000 </r>
       <r>    3.9758    1.0000 </r>
       <r>    3.9763    1.0000 </r>
       <r>    3.9764    1.0000 </r>
       <r>    4.0030    1.0000 </r>
       <r>    4.0471    1.0000 </r>
       <r>    4.0477    1.0000 </r>
       <r>    4.0680    1.0000 </r>
       <r>    4.0681    1.0000 </r>
       <r>    4.0695    1.0000 </r>
       <r>    4.1191    1.0000 </r>
       <r>    4.1196    1.0000 </r>
       <r>    4.1198    1.0000 </r>
       <r>    4.3673    1.0000 </r>
       <r>    4.3679    1.0000 </r>
       <r>    4.3680    1.0000 </r>
       <r>    4.6354    1.0000 </r>
       <r>    4.6359    1.0000 </r>
       <r>    4.9585    1.0000 </r>
       <r>    4.9591    1.0000 </r>
       <r>    5.9333    0.0000 </r>
       <r>    5.9337    0.0000 </r>
       <r>    5.9343    0.0000 </r>
       <r>    5.9529    0.0000 </r>
       <r>    6.1228    0.0000 </r>
       <r>    6.2202    0.0000 </r>
       <r>    6.2204    0.0000 </r>
       <r>    6.2210    0.0000 </r>
       <r>    6.3085    0.0000 </r>
       <r>    6.3085    0.0000 </r>
       <r>    6.3092    0.0000 </r>
       <r>    6.5319    0.0000 </r>
       <r>    6.5321    0.0000 </r>
       <r>    6.5323    0.0000 </r>
       <r>    6.5425    0.0000 </r>
       <r>    6.5427    0.0000 </r>
       <r>    6.5433    0.0000 </r>
       <r>    6.5601    0.0000 </r>
       <r>    6.5605    0.0000 </r>
       <r>    6.5606    0.0000 </r>
       <r>    6.7107    0.0000 </r>
       <r>    6.7698    0.0000 </r>
       <r>    6.7699    0.0000 </r>
       <r>    6.7704    0.0000 </r>
       <r>    6.7854    0.0000 </r>
       <r>    6.7858    0.0000 </r>
       <r>    6.7862    0.0000 </r>
       <r>    6.8720    0.0000 </r>
       <r>    6.8722    0.0000 </r>
       <r>    6.8723    0.0000 </r>
       <r>    6.8974    0.0000 </r>
       <r>    6.9733    0.0000 </r>
       <r>    6.9736    0.0000 </r>
       <r>    6.9739    0.0000 </r>
       <r>    6.9827    0.0000 </r>
       <r>    6.9832    0.0000 </r>
       <r>    6.9832    0.0000 </r>
       <r>    6.9833    0.0000 </r>
       <r>    6.9842    0.0000 </r>
       <r>    6.9844    0.0000 </r>
       <r>    7.0273    0.0000 </r>
       <r>    7.0274    0.0000 </r>
       <r>    7.0279    0.0000 </r>
       <r>    7.1163    0.0000 </r>
       <r>    7.1166    0.0000 </r>
       <r>    7.1169    0.0000 </r>
       <r>    7.2775    0.0000 </r>
       <r>    7.2785    0.0000 </r>
       <r>    7.2785    0.0000 </r>
       <r>    7.2785    0.0000 </r>
       <r>    7.2794    0.0000 </r>
       <r>    7.2795    0.0000 </r>
       <r>    7.4297    0.0000 </r>
       <r>    7.4299    0.0000 </r>
       <r>    7.4302    0.0000 </r>
       <r>    7.7994    0.0000 </r>
       <r>    7.8003    0.0000 </r>
       <r>    7.8004    0.0000 </r>
       <r>    7.8004    0.0000 </r>
       <r>    7.8011    0.0000 </r>
       <r>    7.8011    0.0000 </r>
       <r>    7.8485    0.0000 </r>
       <r>    7.8490    0.0000 </r>
       <r>    7.8506    0.0000 </r>
       <r>    7.8512    0.0000 </r>
       <r>    7.8514    0.0000 </r>
       <r>    7.8677    0.0000 </r>
       <r>    7.8682    0.0000 </r>
       <r>    7.8682    0.0000 </r>
       <r>    8.0449    0.0000 </r>
       <r>    8.0460    0.0000 </r>
       <r>    8.0460    0.0000 </r>
       <r>    8.1007    0.0000 </r>
       <r>    8.1011    0.0000 </r>
       <r>    8.1011    0.0000 </r>
       <r>    8.1012    0.0000 </r>
       <r>    8.1020    0.0000 </r>
       <r>    8.1022    0.0000 </r>
       <r>    8.1576    0.0000 </r>
       <r>    8.2902    0.0000 </r>
       <r>    8.2907    0.0000 </r>
       <r>    8.3257    0.0000 </r>
       <r>    8.3263    0.0000 </r>
       <r>    8.3263    0.0000 </r>
       <r>    8.4400    0.0000 </r>
       <r>    8.4401    0.0000 </r>
       <r>    8.4403    0.0000 </r>
       <r>    8.5268    0.0000 </r>
       <r>    8.5277    0.0000 </r>
       <r>    8.5278    0.0000 </r>
       <r>    8.6026    0.0000 </r>
       <r>    8.6032    0.0000 </r>
       <r>    8.6034    0.0000 </r>
       <r>    8.6876    0.0000 </r>
       <r>    8.6883    0.0000 </r>
       <r>    8.7042    0.0000 </r>
       <r>    8.7045    0.0000 </r>
       <r>    8.7046    0.0000 </r>
       <r>    8.7046    0.0000 </r>
       <r>    8.7055    0.0000 </r>
       <r>    8.7059    0.0000 </r>
       <r>    8.7328    0.0000 </r>
       <r>    8.7335    0.0000 </r>
       <r>    8.8929    0.0000 </r>
       <r>    8.8935    0.0000 </r>
       <r>    8.8936    0.0000 </r>
       <r>    8.9648    0.0000 </r>
       <r>    8.9655    0.0000 </r>
       <r>    8.9657    0.0000 </r>
       <r>    8.9886    0.0000 </r>
       <r>    8.9893    0.0000 </r>
       <r>    8.9894    0.0000 </r>
       <r>    9.0861    0.0000 </r>
       <r>    9.0866    0.0000 </r>
       <r>    9.0869    0.0000 </r>
       <r>    9.1009    0.0000 </r>
       <r>    9.1010    0.0000 </r>
       <r>    9.1011    0.0000 </r>
       <r>    9.1014    0.0000 </r>
       <r>    9.1021    0.0000 </r>
       <r>    9.1025    0.0000 </r>
       <r>    9.1713    0.0000 </r>
       <r>    9.1718    0.0000 </r>
       <r>    9.1719    0.0000 </r>
       <r>    9.2187    0.0000 </r>
       <r>    9.2192    0.0000 </r>
       <r>    9.2209    0.0000 </r>
       <r>    9.4164    0.0000 </r>
      </set>
      <set comment="kpoint 5">
       <r>  -19.2239    1.0000 </r>
       <r>  -19.2234    1.0000 </r>
       <r>  -19.2233    1.0000 </r>
       <r>  -19.2227    1.0000 </r>
       <r>  -19.2218    1.0000 </r>
       <r>  -19.2217    1.0000 </r>
       <r>  -19.2213    1.0000 </r>
       <r>  -19.2213    1.0000 </r>
       <r>  -19.2212    1.0000 </r>
       <r>  -19.2212    1.0000 </r>
       <r>  -19.2212    1.0000 </r>
       <r>  -19.2211    1.0000 </r>
       <r>  -19.2210    1.0000 </r>
       <r>  -19.2208    1.0000 </r>
       <r>  -19.2207    1.0000 </r>
       <r>  -19.2206    1.0000 </r>
       <r>  -19.2206    1.0000 </r>
       <r>  -19.2205    1.0000 </r>
       <r>  -19.2205    1.0000 </r>
       <r>  -19.2204    1.0000 </r>
       <r>  -19.2203    1.0000 </r>
       <r>  -19.2202    1.0000 </r>
       <r>  -19.2198    1.0000 </r>
       <r>  -19.2194    1.0000 </r>
       <r>  -19.2193    1.0000 </r>
       <r>  -19.2193    1.0000 </r>
       <r>  -19.2192    1.0000 </r>
       <r>  -19.2191    1.0000 </r>
       <r>  -19.2190    1.0000 </r>
       <r>  -19.2188    1.0000 </r>
       <r>  -19.2188    1.0000 </r>
       <r>  -19.2187    1.0000 </r>
       <r>  -19.2187    1.0000 </r>
       <r>  -19.2187    1.0000 </r>
       <r>  -19.2186    1.0000 </r>
       <r>  -19.2186    1.0000 </r>
       <r>  -19.2185    1.0000 </r>
       <r>  -19.2185    1.0000 </r>
       <r>  -19.2185    1.0000 </r>
       <r>  -19.2184    1.0000 </r>
       <r>  -19.2184    1.0000 </r>
       <r>  -19.2184    1.0000 </r>
       <r>  -19.2184    1.0000 </r>
       <r>  -19.2184    1.0000 </r>
       <r>  -19.2183    1.0000 </r>
       <r>  -19.2183    1.0000 </r>
       <r>  -19.2183    1.0000 </r>
       <r>  -19.2182    1.0000 </r>
       <r>  -19.2181    1.0000 </r>
       <r>  -19.2181    1.0000 </r>
       <r>  -19.2181    1.0000 </r>
       <r>  -19.2180    1.0000 </r>
       <r>  -19.2180    1.0000 </r>
       <r>  -19.2180    1.0000 </r>
       <r>  -19.2179    1.0000 </r>
       <r>  -19.2179    1.0000 </r>
       <r>  -19.2178    1.0000 </r>
       <r>  -19.2178    1.0000 </r>
       <r>  -19.2177    1.0000 </r>
       <r>  -19.2177    1.0000 </r>
       <r>  -19.2176    1.0000 </r>
       <r>  -19.2175    1.0000 </r>
       <r>  -19.2175    1.0000 </r>
       <r>  -19.2174    1.0000 </r>
       <r>  -19.2172    1.0000 </r>
       <r>  -19.2171    1.0000 </r>
       <r>  -19.2163    1.0000 </r>
       <r>  -19.2162    1.0000 </r>
       <r>  -19.2161    1.0000 </r>
       <r>  -19.2161    1.0000 </r>
       <r>  -19.2157    1.0000 </r>
       <r>  -19.2155    1.0000 </r>
       <r>  -19.2155    1.0000 </r>
       <r>  -19.2154    1.0000 </r>
       <r>  -19.2153    1.0000 </r>
       <r>  -19.2152    1.0000 </r>
       <r>  -19.2146    1.0000 </r>
       <r>  -19.2145    1.0000 </r>
       <r>  -19.2144    1.0000 </r>
       <r>  -19.2143    1.0000 </r>
       <r>  -19.2141    1.0000 </r>
       <r>  -19.2140    1.0000 </r>
       <r>  -19.2139    1.0000 </r>
       <r>  -19.2138    1.0000 </r>
       <r>  -19.2138    1.0000 </r>
       <r>  -19.2137    1.0000 </r>
       <r>  -19.2136    1.0000 </r>
       <r>  -19.2135    1.0000 </r>
       <r>  -19.2135    1.0000 </r>
       <r>  -19.2134    1.0000 </r>
       <r>  -19.2134    1.0000 </r>
       <r>  -19.2133    1.0000 </r>
       <r>  -19.2133    1.0000 </r>
       <r>  -19.2133    1.0000 </r>
       <r>  -19.2132    1.0000 </r>
       <r>  -19.2132    1.0000 </r>
       <r>  -19.2132    1.0000 </r>
       <r>  -19.2132    1.0000 </r>
       <r>  -19.2131    1.0000 </r>
       <r>  -19.2131    1.0000 </r>
       <r>  -19.2131    1.0000 </r>
       <r>  -19.2130    1.0000 </r>
       <r>  -19.2130    1.0000 </r>
       <r>  -19.2130    1.0000 </r>
       <r>  -19.2130    1.0000 </r>
       <r>  -19.2129    1.0000 </r>
       <r>  -19.2129    1.0000 </r>
       <r>  -19.2129    1.0000 </r>
       <r>  -19.2129    1.0000 </r>
       <r>  -19.2129    1.0000 </r>
       <r>  -19.2129    1.0000 </r>
       <r>  -19.2128    1.0000 </r>
       <r>  -19.2128    1.0000 </r>
       <r>  -19.2128    1.0000 </r>
       <r>  -19.2128    1.0000 </r>
       <r>  -19.2127    1.0000 </r>
       <r>  -19.2127    1.0000 </r>
       <r>  -19.2127    1.0000 </r>
       <r>  -19.2127    1.0000 </r>
       <r>  -19.2127    1.0000 </r>
       <r>  -19.2127    1.0000 </r>
       <r>  -19.2126    1.0000 </r>
       <r>  -19.2126    1.0000 </r>
       <r>  -19.2126    1.0000 </r>
       <r>  -19.2126    1.0000 </r>
       <r>  -19.2126    1.0000 </r>
       <r>  -19.2125    1.0000 </r>
       <r>  -19.2125    1.0000 </r>
       <r>  -19.2125    1.0000 </r>
       <r>  -19.2125    1.0000 </r>
       <r>  -19.2124    1.0000 </r>
       <r>  -19.2124    1.0000 </r>
       <r>  -19.2124    1.0000 </r>
       <r>  -19.2122    1.0000 </r>
       <r>  -19.2121    1.0000 </r>
       <r>  -19.2120    1.0000 </r>
       <r>  -19.2119    1.0000 </r>
       <r>  -19.2119    1.0000 </r>
       <r>  -19.2117    1.0000 </r>
       <r>  -19.2116    1.0000 </r>
       <r>  -19.2110    1.0000 </r>
       <r>  -19.2108    1.0000 </r>
       <r>  -19.2107    1.0000 </r>
       <r>  -19.2107    1.0000 </r>
       <r>  -19.2107    1.0000 </r>
       <r>  -19.2106    1.0000 </r>
       <r>  -19.2106    1.0000 </r>
       <r>  -19.2106    1.0000 </r>
       <r>  -19.2105    1.0000 </r>
       <r>  -19.2105    1.0000 </r>
       <r>  -19.2104    1.0000 </r>
       <r>  -19.2104    1.0000 </r>
       <r>  -19.2104    1.0000 </r>
       <r>  -19.2103    1.0000 </r>
       <r>  -19.2103    1.0000 </r>
       <r>  -19.2103    1.0000 </r>
       <r>  -19.2103    1.0000 </r>
       <r>  -19.2102    1.0000 </r>
       <r>  -19.2102    1.0000 </r>
       <r>  -19.2102    1.0000 </r>
       <r>  -19.2101    1.0000 </r>
       <r>  -19.2101    1.0000 </r>
       <r>  -19.2100    1.0000 </r>
       <r>  -19.2100    1.0000 </r>
       <r>  -19.2099    1.0000 </r>
       <r>  -19.2097    1.0000 </r>
       <r>  -19.2097    1.0000 </r>
       <r>  -19.2093    1.0000 </r>
       <r>  -19.2092    1.0000 </r>
       <r>  -19.2092    1.0000 </r>
       <r>  -19.2091    1.0000 </r>
       <r>  -19.2091    1.0000 </r>
       <r>  -19.2090    1.0000 </r>
       <r>  -19.2090    1.0000 </r>
       <r>  -19.2090    1.0000 </r>
       <r>  -19.2089    1.0000 </r>
       <r>  -19.2089    1.0000 </r>
       <r>  -19.2088    1.0000 </r>
       <r>  -19.2086    1.0000 </r>
       <r>  -19.2085    1.0000 </r>
       <r>  -19.2082    1.0000 </r>
       <r>  -19.2082    1.0000 </r>
       <r>  -19.2081    1.0000 </r>
       <r>  -19.2080    1.0000 </r>
       <r>  -19.2080    1.0000 </r>
       <r>  -19.2079    1.0000 </r>
       <r>  -19.2075    1.0000 </r>
       <r>  -19.2074    1.0000 </r>
       <r>  -19.2072    1.0000 </r>
       <r>  -19.2072    1.0000 </r>
       <r>  -19.2072    1.0000 </r>
       <r>  -19.2067    1.0000 </r>
       <r>  -19.1965    1.0000 </r>
       <r>  -19.1965    1.0000 </r>
       <r>  -19.1959    1.0000 </r>
       <r>  -19.1957    1.0000 </r>
       <r>  -19.1956    1.0000 </r>
       <r>  -19.1952    1.0000 </r>
       <r>  -19.1950    1.0000 </r>
       <r>  -19.1950    1.0000 </r>
       <r>  -19.1948    1.0000 </r>
       <r>  -19.1947    1.0000 </r>
       <r>  -19.1947    1.0000 </r>
       <r>  -19.1947    1.0000 </r>
       <r>  -19.1946    1.0000 </r>
       <r>  -19.1946    1.0000 </r>
       <r>  -19.1945    1.0000 </r>
       <r>  -19.1945    1.0000 </r>
       <r>  -19.1944    1.0000 </r>
       <r>  -19.1944    1.0000 </r>
       <r>  -19.1942    1.0000 </r>
       <r>  -19.1941    1.0000 </r>
       <r>  -19.1939    1.0000 </r>
       <r>  -19.1939    1.0000 </r>
       <r>  -19.1938    1.0000 </r>
       <r>  -19.1938    1.0000 </r>
       <r>  -19.1937    1.0000 </r>
       <r>  -19.1937    1.0000 </r>
       <r>  -19.1936    1.0000 </r>
       <r>  -19.1934    1.0000 </r>
       <r>  -19.1933    1.0000 </r>
       <r>  -19.1932    1.0000 </r>
       <r>  -19.1932    1.0000 </r>
       <r>  -19.1932    1.0000 </r>
       <r>  -19.1931    1.0000 </r>
       <r>  -19.1931    1.0000 </r>
       <r>  -19.1930    1.0000 </r>
       <r>  -19.1930    1.0000 </r>
       <r>  -19.1930    1.0000 </r>
       <r>  -19.1929    1.0000 </r>
       <r>  -19.1929    1.0000 </r>
       <r>  -19.1929    1.0000 </r>
       <r>  -19.1929    1.0000 </r>
       <r>  -19.1928    1.0000 </r>
       <r>  -19.1928    1.0000 </r>
       <r>  -19.1928    1.0000 </r>
       <r>  -19.1928    1.0000 </r>
       <r>  -19.1927    1.0000 </r>
       <r>  -19.1927    1.0000 </r>
       <r>  -19.1926    1.0000 </r>
       <r>  -19.1926    1.0000 </r>
       <r>  -19.1925    1.0000 </r>
       <r>  -19.1925    1.0000 </r>
       <r>  -19.1924    1.0000 </r>
       <r>  -19.1924    1.0000 </r>
       <r>  -19.1924    1.0000 </r>
       <r>  -19.1923    1.0000 </r>
       <r>  -19.1922    1.0000 </r>
       <r>  -19.1920    1.0000 </r>
       <r>  -19.1919    1.0000 </r>
       <r>  -19.1919    1.0000 </r>
       <r>  -19.1918    1.0000 </r>
       <r>  -19.1918    1.0000 </r>
       <r>  -19.1918    1.0000 </r>
       <r>  -19.1917    1.0000 </r>
       <r>  -19.1916    1.0000 </r>
       <r>  -19.1916    1.0000 </r>
       <r>  -19.1916    1.0000 </r>
       <r>  -19.1915    1.0000 </r>
       <r>  -19.1915    1.0000 </r>
       <r>  -19.1914    1.0000 </r>
       <r>  -19.1914    1.0000 </r>
       <r>  -19.1914    1.0000 </r>
       <r>  -19.1913    1.0000 </r>
       <r>  -19.1913    1.0000 </r>
       <r>  -19.1913    1.0000 </r>
       <r>  -19.1912    1.0000 </r>
       <r>  -19.1912    1.0000 </r>
       <r>  -19.1912    1.0000 </r>
       <r>  -19.1912    1.0000 </r>
       <r>  -19.1911    1.0000 </r>
       <r>  -19.1911    1.0000 </r>
       <r>  -19.1910    1.0000 </r>
       <r>  -19.1910    1.0000 </r>
       <r>  -19.1909    1.0000 </r>
       <r>  -19.1909    1.0000 </r>
       <r>  -19.1908    1.0000 </r>
       <r>  -19.1908    1.0000 </r>
       <r>  -19.1908    1.0000 </r>
       <r>  -19.1907    1.0000 </r>
       <r>  -19.1907    1.0000 </r>
       <r>  -19.1906    1.0000 </r>
       <r>  -19.1906    1.0000 </r>
       <r>  -19.1905    1.0000 </r>
       <r>  -19.1905    1.0000 </r>
       <r>  -19.1905    1.0000 </r>
       <r>  -19.1905    1.0000 </r>
       <r>  -19.1905    1.0000 </r>
       <r>  -19.1904    1.0000 </r>
       <r>  -19.1904    1.0000 </r>
       <r>  -19.1903    1.0000 </r>
       <r>  -19.1903    1.0000 </r>
       <r>  -19.1902    1.0000 </r>
       <r>  -19.1902    1.0000 </r>
       <r>  -19.1902    1.0000 </r>
       <r>  -19.1902    1.0000 </r>
       <r>  -19.1901    1.0000 </r>
       <r>  -19.1901    1.0000 </r>
       <r>  -19.1900    1.0000 </r>
       <r>  -19.1900    1.0000 </r>
       <r>  -19.1898    1.0000 </r>
       <r>  -19.1897    1.0000 </r>
       <r>  -19.1896    1.0000 </r>
       <r>  -19.1895    1.0000 </r>
       <r>  -19.1895    1.0000 </r>
       <r>  -19.1894    1.0000 </r>
       <r>  -19.1894    1.0000 </r>
       <r>  -19.1893    1.0000 </r>
       <r>  -19.1893    1.0000 </r>
       <r>  -19.1893    1.0000 </r>
       <r>  -19.1892    1.0000 </r>
       <r>  -19.1892    1.0000 </r>
       <r>  -19.1891    1.0000 </r>
       <r>  -19.1890    1.0000 </r>
       <r>  -19.1889    1.0000 </r>
       <r>  -19.1884    1.0000 </r>
       <r>  -19.1884    1.0000 </r>
       <r>  -19.1883    1.0000 </r>
       <r>  -19.1875    1.0000 </r>
       <r>  -19.1874    1.0000 </r>
       <r>   -6.9649    1.0000 </r>
       <r>   -6.6257    1.0000 </r>
       <r>   -6.5476    1.0000 </r>
       <r>   -6.5472    1.0000 </r>
       <r>   -6.5471    1.0000 </r>
       <r>   -6.5467    1.0000 </r>
       <r>   -5.9668    1.0000 </r>
       <r>   -5.9662    1.0000 </r>
       <r>   -5.9662    1.0000 </r>
       <r>   -5.9656    1.0000 </r>
       <r>   -5.9167    1.0000 </r>
       <r>   -5.9163    1.0000 </r>
       <r>   -5.9162    1.0000 </r>
       <r>   -5.9158    1.0000 </r>
       <r>   -5.6685    1.0000 </r>
       <r>   -5.6679    1.0000 </r>
       <r>   -5.6679    1.0000 </r>
       <r>   -5.6673    1.0000 </r>
       <r>   -5.3171    1.0000 </r>
       <r>   -5.3166    1.0000 </r>
       <r>   -5.3166    1.0000 </r>
       <r>   -5.3161    1.0000 </r>
       <r>   -5.3031    1.0000 </r>
       <r>   -5.1438    1.0000 </r>
       <r>   -5.1431    1.0000 </r>
       <r>   -5.1430    1.0000 </r>
       <r>   -5.1423    1.0000 </r>
       <r>   -5.0359    1.0000 </r>
       <r>   -5.0352    1.0000 </r>
       <r>   -5.0351    1.0000 </r>
       <r>   -5.0344    1.0000 </r>
       <r>   -4.6705    1.0000 </r>
       <r>   -4.6691    1.0000 </r>
       <r>   -4.6691    1.0000 </r>
       <r>   -4.6690    1.0000 </r>
       <r>   -4.6690    1.0000 </r>
       <r>   -4.6689    1.0000 </r>
       <r>   -4.6689    1.0000 </r>
       <r>   -4.6676    1.0000 </r>
       <r>   -4.5777    1.0000 </r>
       <r>   -4.5771    1.0000 </r>
       <r>   -4.5771    1.0000 </r>
       <r>   -4.5765    1.0000 </r>
       <r>   -4.4960    1.0000 </r>
       <r>   -4.4947    1.0000 </r>
       <r>   -4.4946    1.0000 </r>
       <r>   -4.4946    1.0000 </r>
       <r>   -4.4946    1.0000 </r>
       <r>   -4.4946    1.0000 </r>
       <r>   -4.4945    1.0000 </r>
       <r>   -4.4931    1.0000 </r>
       <r>   -4.3641    1.0000 </r>
       <r>   -3.9061    1.0000 </r>
       <r>   -3.9054    1.0000 </r>
       <r>   -3.9054    1.0000 </r>
       <r>   -3.9048    1.0000 </r>
       <r>   -3.8947    1.0000 </r>
       <r>   -3.8940    1.0000 </r>
       <r>   -3.8940    1.0000 </r>
       <r>   -3.8932    1.0000 </r>
       <r>   -3.5418    1.0000 </r>
       <r>   -3.5410    1.0000 </r>
       <r>   -3.4975    1.0000 </r>
       <r>   -3.4967    1.0000 </r>
       <r>   -2.7026    1.0000 </r>
       <r>   -2.7026    1.0000 </r>
       <r>   -2.6272    1.0000 </r>
       <r>   -2.6272    1.0000 </r>
       <r>   -2.2764    1.0000 </r>
       <r>   -2.2759    1.0000 </r>
       <r>   -2.2758    1.0000 </r>
       <r>   -2.2754    1.0000 </r>
       <r>   -2.1793    1.0000 </r>
       <r>   -2.1788    1.0000 </r>
       <r>   -2.1787    1.0000 </r>
       <r>   -2.1783    1.0000 </r>
       <r>   -1.8900    1.0000 </r>
       <r>   -1.8887    1.0000 </r>
       <r>   -1.8886    1.0000 </r>
       <r>   -1.8886    1.0000 </r>
       <r>   -1.8885    1.0000 </r>
       <r>   -1.8884    1.0000 </r>
       <r>   -1.8883    1.0000 </r>
       <r>   -1.8870    1.0000 </r>
       <r>   -1.7931    1.0000 </r>
       <r>   -1.7544    1.0000 </r>
       <r>   -1.7536    1.0000 </r>
       <r>   -1.7536    1.0000 </r>
       <r>   -1.7529    1.0000 </r>
       <r>   -1.5193    1.0000 </r>
       <r>   -1.5187    1.0000 </r>
       <r>   -1.5186    1.0000 </r>
       <r>   -1.5180    1.0000 </r>
       <r>   -1.3723    1.0000 </r>
       <r>   -1.3711    1.0000 </r>
       <r>   -1.3710    1.0000 </r>
       <r>   -1.3709    1.0000 </r>
       <r>   -1.3709    1.0000 </r>
       <r>   -1.3708    1.0000 </r>
       <r>   -1.3707    1.0000 </r>
       <r>   -1.3695    1.0000 </r>
       <r>   -1.1902    1.0000 </r>
       <r>   -1.1895    1.0000 </r>
       <r>   -1.1894    1.0000 </r>
       <r>   -1.1887    1.0000 </r>
       <r>   -0.8864    1.0000 </r>
       <r>   -0.8859    1.0000 </r>
       <r>   -0.8857    1.0000 </r>
       <r>   -0.8852    1.0000 </r>
       <r>   -0.4290    1.0000 </r>
       <r>   -0.0575    1.0000 </r>
       <r>   -0.0570    1.0000 </r>
       <r>   -0.0568    1.0000 </r>
       <r>   -0.0563    1.0000 </r>
       <r>   -0.0299    1.0000 </r>
       <r>   -0.0293    1.0000 </r>
       <r>   -0.0293    1.0000 </r>
       <r>   -0.0286    1.0000 </r>
       <r>    0.6822    1.0000 </r>
       <r>    0.6829    1.0000 </r>
       <r>    0.6829    1.0000 </r>
       <r>    0.6836    1.0000 </r>
       <r>    1.0025    1.0000 </r>
       <r>    1.0028    1.0000 </r>
       <r>    1.0029    1.0000 </r>
       <r>    1.0032    1.0000 </r>
       <r>    1.0066    1.0000 </r>
       <r>    1.0068    1.0000 </r>
       <r>    1.0069    1.0000 </r>
       <r>    1.0072    1.0000 </r>
       <r>    1.0454    1.0000 </r>
       <r>    1.0456    1.0000 </r>
       <r>    1.0458    1.0000 </r>
       <r>    1.0460    1.0000 </r>
       <r>    1.5119    1.0000 </r>
       <r>    1.5119    1.0000 </r>
       <r>    1.5590    1.0000 </r>
       <r>    1.5590    1.0000 </r>
       <r>    1.5950    1.0000 </r>
       <r>    1.5954    1.0000 </r>
       <r>    1.5955    1.0000 </r>
       <r>    1.5958    1.0000 </r>
       <r>    1.5958    1.0000 </r>
       <r>    1.5961    1.0000 </r>
       <r>    1.5963    1.0000 </r>
       <r>    1.5966    1.0000 </r>
       <r>    1.7133    1.0000 </r>
       <r>    1.7134    1.0000 </r>
       <r>    1.7137    1.0000 </r>
       <r>    1.7138    1.0000 </r>
       <r>    1.7138    1.0000 </r>
       <r>    1.7139    1.0000 </r>
       <r>    1.7142    1.0000 </r>
       <r>    1.7143    1.0000 </r>
       <r>    1.7995    1.0000 </r>
       <r>    1.7999    1.0000 </r>
       <r>    1.8003    1.0000 </r>
       <r>    1.8007    1.0000 </r>
       <r>    1.9522    1.0000 </r>
       <r>    1.9522    1.0000 </r>
       <r>    1.9652    1.0000 </r>
       <r>    1.9653    1.0000 </r>
       <r>    2.0016    1.0000 </r>
       <r>    2.0020    1.0000 </r>
       <r>    2.0021    1.0000 </r>
       <r>    2.0026    1.0000 </r>
       <r>    2.0384    1.0000 </r>
       <r>    2.0387    1.0000 </r>
       <r>    2.0389    1.0000 </r>
       <r>    2.0392    1.0000 </r>
       <r>    2.0751    1.0000 </r>
       <r>    2.0754    1.0000 </r>
       <r>    2.0755    1.0000 </r>
       <r>    2.0758    1.0000 </r>
       <r>    2.3325    1.0000 </r>
       <r>    2.3328    1.0000 </r>
       <r>    2.4804    1.0000 </r>
       <r>    2.4809    1.0000 </r>
       <r>    2.4811    1.0000 </r>
       <r>    2.4812    1.0000 </r>
       <r>    2.4812    1.0000 </r>
       <r>    2.4813    1.0000 </r>
       <r>    2.4815    1.0000 </r>
       <r>    2.4820    1.0000 </r>
       <r>    2.5346    1.0000 </r>
       <r>    2.5662    1.0000 </r>
       <r>    2.5667    1.0000 </r>
       <r>    2.5668    1.0000 </r>
       <r>    2.5673    1.0000 </r>
       <r>    2.6634    1.0000 </r>
       <r>    2.6637    1.0000 </r>
       <r>    2.6678    1.0000 </r>
       <r>    2.6683    1.0000 </r>
       <r>    2.6684    1.0000 </r>
       <r>    2.6689    1.0000 </r>
       <r>    2.7777    1.0000 </r>
       <r>    2.7781    1.0000 </r>
       <r>    2.7782    1.0000 </r>
       <r>    2.7786    1.0000 </r>
       <r>    2.9442    1.0000 </r>
       <r>    2.9446    1.0000 </r>
       <r>    2.9449    1.0000 </r>
       <r>    2.9450    1.0000 </r>
       <r>    2.9450    1.0000 </r>
       <r>    2.9451    1.0000 </r>
       <r>    2.9454    1.0000 </r>
       <r>    2.9458    1.0000 </r>
       <r>    3.0070    1.0000 </r>
       <r>    3.0074    1.0000 </r>
       <r>    3.0074    1.0000 </r>
       <r>    3.0079    1.0000 </r>
       <r>    3.1100    1.0000 </r>
       <r>    3.1104    1.0000 </r>
       <r>    3.1106    1.0000 </r>
       <r>    3.1111    1.0000 </r>
       <r>    3.2379    1.0000 </r>
       <r>    3.2384    1.0000 </r>
       <r>    3.2385    1.0000 </r>
       <r>    3.2391    1.0000 </r>
       <r>    3.4318    1.0000 </r>
       <r>    3.4321    1.0000 </r>
       <r>    3.4323    1.0000 </r>
       <r>    3.4326    1.0000 </r>
       <r>    3.6843    1.0000 </r>
       <r>    3.6846    1.0000 </r>
       <r>    3.6848    1.0000 </r>
       <r>    3.6850    1.0000 </r>
       <r>    3.6964    1.0000 </r>
       <r>    3.6969    1.0000 </r>
       <r>    3.6970    1.0000 </r>
       <r>    3.6976    1.0000 </r>
       <r>    3.7488    1.0000 </r>
       <r>    3.7501    1.0000 </r>
       <r>    3.7503    1.0000 </r>
       <r>    3.7503    1.0000 </r>
       <r>    3.7505    1.0000 </r>
       <r>    3.7506    1.0000 </r>
       <r>    3.7508    1.0000 </r>
       <r>    3.7521    1.0000 </r>
       <r>    3.7793    1.0000 </r>
       <r>    3.7797    1.0000 </r>
       <r>    3.7799    1.0000 </r>
       <r>    3.7803    1.0000 </r>
       <r>    3.8028    1.0000 </r>
       <r>    3.8035    1.0000 </r>
       <r>    3.8037    1.0000 </r>
       <r>    3.8044    1.0000 </r>
       <r>    3.9047    1.0000 </r>
       <r>    3.9052    1.0000 </r>
       <r>    4.0441    1.0000 </r>
       <r>    4.6750    1.0000 </r>
       <r>    4.6758    1.0000 </r>
       <r>    4.7138    1.0000 </r>
       <r>    4.7147    1.0000 </r>
       <r>    4.7149    1.0000 </r>
       <r>    4.7158    1.0000 </r>
       <r>    5.7217    0.0000 </r>
       <r>    5.8500    0.0000 </r>
       <r>    6.3485    0.0000 </r>
       <r>    6.3494    0.0000 </r>
       <r>    6.3823    0.0000 </r>
       <r>    6.3829    0.0000 </r>
       <r>    6.3830    0.0000 </r>
       <r>    6.3836    0.0000 </r>
       <r>    6.4296    0.0000 </r>
       <r>    6.5387    0.0000 </r>
       <r>    6.5389    0.0000 </r>
       <r>    6.5390    0.0000 </r>
       <r>    6.5393    0.0000 </r>
       <r>    6.6425    0.0000 </r>
       <r>    6.6425    0.0000 </r>
       <r>    6.7639    0.0000 </r>
       <r>    6.8297    0.0000 </r>
       <r>    6.8308    0.0000 </r>
       <r>    6.8309    0.0000 </r>
       <r>    6.8310    0.0000 </r>
       <r>    6.8310    0.0000 </r>
       <r>    6.8311    0.0000 </r>
       <r>    6.8311    0.0000 </r>
       <r>    6.8322    0.0000 </r>
       <r>    6.8438    0.0000 </r>
       <r>    6.8440    0.0000 </r>
       <r>    6.8441    0.0000 </r>
       <r>    6.8444    0.0000 </r>
       <r>    6.8571    0.0000 </r>
       <r>    6.8575    0.0000 </r>
       <r>    6.8577    0.0000 </r>
       <r>    6.8583    0.0000 </r>
       <r>    6.9954    0.0000 </r>
       <r>    6.9959    0.0000 </r>
       <r>    6.9961    0.0000 </r>
       <r>    6.9966    0.0000 </r>
       <r>    7.1383    0.0000 </r>
       <r>    7.1386    0.0000 </r>
       <r>    7.1386    0.0000 </r>
       <r>    7.1389    0.0000 </r>
       <r>    7.1866    0.0000 </r>
       <r>    7.2112    0.0000 </r>
       <r>    7.2117    0.0000 </r>
       <r>    7.2118    0.0000 </r>
       <r>    7.2122    0.0000 </r>
       <r>    7.3330    0.0000 </r>
       <r>    7.3658    0.0000 </r>
       <r>    7.3667    0.0000 </r>
       <r>    7.3669    0.0000 </r>
       <r>    7.3669    0.0000 </r>
       <r>    7.3670    0.0000 </r>
       <r>    7.3670    0.0000 </r>
       <r>    7.3672    0.0000 </r>
       <r>    7.3682    0.0000 </r>
       <r>    7.5118    0.0000 </r>
       <r>    7.5327    0.0000 </r>
       <r>    7.5332    0.0000 </r>
       <r>    7.5332    0.0000 </r>
       <r>    7.5337    0.0000 </r>
       <r>    7.7099    0.0000 </r>
       <r>    7.7107    0.0000 </r>
       <r>    8.0043    0.0000 </r>
       <r>    8.0048    0.0000 </r>
       <r>    8.0048    0.0000 </r>
       <r>    8.0053    0.0000 </r>
       <r>    8.0150    0.0000 </r>
       <r>    8.0150    0.0000 </r>
       <r>    8.1261    0.0000 </r>
       <r>    8.1266    0.0000 </r>
       <r>    8.1268    0.0000 </r>
       <r>    8.1269    0.0000 </r>
       <r>    8.1270    0.0000 </r>
       <r>    8.1271    0.0000 </r>
       <r>    8.1273    0.0000 </r>
       <r>    8.1277    0.0000 </r>
       <r>    8.2141    0.0000 </r>
       <r>    8.2145    0.0000 </r>
       <r>    8.2436    0.0000 </r>
       <r>    8.2443    0.0000 </r>
       <r>    8.2443    0.0000 </r>
       <r>    8.2450    0.0000 </r>
       <r>    8.2784    0.0000 </r>
       <r>    8.2788    0.0000 </r>
       <r>    8.2790    0.0000 </r>
       <r>    8.2793    0.0000 </r>
       <r>    8.3552    0.0000 </r>
       <r>    8.3555    0.0000 </r>
       <r>    8.3555    0.0000 </r>
       <r>    8.3558    0.0000 </r>
       <r>    8.3671    0.0000 </r>
       <r>    8.3674    0.0000 </r>
       <r>    8.3680    0.0000 </r>
       <r>    8.3683    0.0000 </r>
       <r>    8.3934    0.0000 </r>
       <r>    8.3938    0.0000 </r>
       <r>    8.3939    0.0000 </r>
       <r>    8.3943    0.0000 </r>
       <r>    8.5094    0.0000 </r>
       <r>    8.5603    0.0000 </r>
       <r>    8.5607    0.0000 </r>
       <r>    8.5610    0.0000 </r>
       <r>    8.5614    0.0000 </r>
       <r>    8.6524    0.0000 </r>
       <r>    8.6528    0.0000 </r>
       <r>    8.6534    0.0000 </r>
       <r>    8.6538    0.0000 </r>
       <r>    8.8672    0.0000 </r>
       <r>    8.8680    0.0000 </r>
       <r>    8.8680    0.0000 </r>
       <r>    8.8687    0.0000 </r>
       <r>    8.9375    0.0000 </r>
       <r>    8.9380    0.0000 </r>
       <r>    8.9381    0.0000 </r>
       <r>    8.9385    0.0000 </r>
       <r>    8.9428    0.0000 </r>
       <r>    8.9436    0.0000 </r>
       <r>    8.9438    0.0000 </r>
       <r>    8.9439    0.0000 </r>
       <r>    8.9439    0.0000 </r>
       <r>    8.9440    0.0000 </r>
       <r>    8.9442    0.0000 </r>
       <r>    8.9452    0.0000 </r>
       <r>    9.1179    0.0000 </r>
       <r>    9.1184    0.0000 </r>
       <r>    9.1207    0.0000 </r>
       <r>    9.1356    0.0000 </r>
       <r>    9.2659    0.0000 </r>
       <r>    9.2736    0.0000 </r>
      </set>
      <set comment="kpoint 6">
       <r>  -19.2239    1.0000 </r>
       <r>  -19.2234    1.0000 </r>
       <r>  -19.2233    1.0000 </r>
       <r>  -19.2227    1.0000 </r>
       <r>  -19.2218    1.0000 </r>
       <r>  -19.2218    1.0000 </r>
       <r>  -19.2214    1.0000 </r>
       <r>  -19.2213    1.0000 </r>
       <r>  -19.2212    1.0000 </r>
       <r>  -19.2212    1.0000 </r>
       <r>  -19.2211    1.0000 </r>
       <r>  -19.2211    1.0000 </r>
       <r>  -19.2210    1.0000 </r>
       <r>  -19.2207    1.0000 </r>
       <r>  -19.2207    1.0000 </r>
       <r>  -19.2206    1.0000 </r>
       <r>  -19.2206    1.0000 </r>
       <r>  -19.2205    1.0000 </r>
       <r>  -19.2205    1.0000 </r>
       <r>  -19.2204    1.0000 </r>
       <r>  -19.2202    1.0000 </r>
       <r>  -19.2202    1.0000 </r>
       <r>  -19.2198    1.0000 </r>
       <r>  -19.2194    1.0000 </r>
       <r>  -19.2194    1.0000 </r>
       <r>  -19.2193    1.0000 </r>
       <r>  -19.2192    1.0000 </r>
       <r>  -19.2191    1.0000 </r>
       <r>  -19.2190    1.0000 </r>
       <r>  -19.2189    1.0000 </r>
       <r>  -19.2187    1.0000 </r>
       <r>  -19.2187    1.0000 </r>
       <r>  -19.2187    1.0000 </r>
       <r>  -19.2187    1.0000 </r>
       <r>  -19.2186    1.0000 </r>
       <r>  -19.2186    1.0000 </r>
       <r>  -19.2185    1.0000 </r>
       <r>  -19.2185    1.0000 </r>
       <r>  -19.2185    1.0000 </r>
       <r>  -19.2185    1.0000 </r>
       <r>  -19.2184    1.0000 </r>
       <r>  -19.2184    1.0000 </r>
       <r>  -19.2184    1.0000 </r>
       <r>  -19.2183    1.0000 </r>
       <r>  -19.2183    1.0000 </r>
       <r>  -19.2183    1.0000 </r>
       <r>  -19.2183    1.0000 </r>
       <r>  -19.2182    1.0000 </r>
       <r>  -19.2181    1.0000 </r>
       <r>  -19.2181    1.0000 </r>
       <r>  -19.2180    1.0000 </r>
       <r>  -19.2180    1.0000 </r>
       <r>  -19.2180    1.0000 </r>
       <r>  -19.2179    1.0000 </r>
       <r>  -19.2179    1.0000 </r>
       <r>  -19.2179    1.0000 </r>
       <r>  -19.2178    1.0000 </r>
       <r>  -19.2178    1.0000 </r>
       <r>  -19.2177    1.0000 </r>
       <r>  -19.2177    1.0000 </r>
       <r>  -19.2176    1.0000 </r>
       <r>  -19.2176    1.0000 </r>
       <r>  -19.2174    1.0000 </r>
       <r>  -19.2174    1.0000 </r>
       <r>  -19.2173    1.0000 </r>
       <r>  -19.2170    1.0000 </r>
       <r>  -19.2163    1.0000 </r>
       <r>  -19.2162    1.0000 </r>
       <r>  -19.2161    1.0000 </r>
       <r>  -19.2161    1.0000 </r>
       <r>  -19.2158    1.0000 </r>
       <r>  -19.2155    1.0000 </r>
       <r>  -19.2155    1.0000 </r>
       <r>  -19.2153    1.0000 </r>
       <r>  -19.2152    1.0000 </r>
       <r>  -19.2152    1.0000 </r>
       <r>  -19.2146    1.0000 </r>
       <r>  -19.2145    1.0000 </r>
       <r>  -19.2145    1.0000 </r>
       <r>  -19.2143    1.0000 </r>
       <r>  -19.2141    1.0000 </r>
       <r>  -19.2140    1.0000 </r>
       <r>  -19.2139    1.0000 </r>
       <r>  -19.2139    1.0000 </r>
       <r>  -19.2138    1.0000 </r>
       <r>  -19.2137    1.0000 </r>
       <r>  -19.2137    1.0000 </r>
       <r>  -19.2135    1.0000 </r>
       <r>  -19.2134    1.0000 </r>
       <r>  -19.2134    1.0000 </r>
       <r>  -19.2134    1.0000 </r>
       <r>  -19.2133    1.0000 </r>
       <r>  -19.2133    1.0000 </r>
       <r>  -19.2132    1.0000 </r>
       <r>  -19.2132    1.0000 </r>
       <r>  -19.2132    1.0000 </r>
       <r>  -19.2131    1.0000 </r>
       <r>  -19.2131    1.0000 </r>
       <r>  -19.2131    1.0000 </r>
       <r>  -19.2131    1.0000 </r>
       <r>  -19.2131    1.0000 </r>
       <r>  -19.2130    1.0000 </r>
       <r>  -19.2130    1.0000 </r>
       <r>  -19.2130    1.0000 </r>
       <r>  -19.2130    1.0000 </r>
       <r>  -19.2130    1.0000 </r>
       <r>  -19.2129    1.0000 </r>
       <r>  -19.2129    1.0000 </r>
       <r>  -19.2129    1.0000 </r>
       <r>  -19.2129    1.0000 </r>
       <r>  -19.2129    1.0000 </r>
       <r>  -19.2128    1.0000 </r>
       <r>  -19.2128    1.0000 </r>
       <r>  -19.2128    1.0000 </r>
       <r>  -19.2128    1.0000 </r>
       <r>  -19.2128    1.0000 </r>
       <r>  -19.2127    1.0000 </r>
       <r>  -19.2127    1.0000 </r>
       <r>  -19.2127    1.0000 </r>
       <r>  -19.2127    1.0000 </r>
       <r>  -19.2126    1.0000 </r>
       <r>  -19.2126    1.0000 </r>
       <r>  -19.2126    1.0000 </r>
       <r>  -19.2126    1.0000 </r>
       <r>  -19.2126    1.0000 </r>
       <r>  -19.2126    1.0000 </r>
       <r>  -19.2126    1.0000 </r>
       <r>  -19.2125    1.0000 </r>
       <r>  -19.2125    1.0000 </r>
       <r>  -19.2124    1.0000 </r>
       <r>  -19.2124    1.0000 </r>
       <r>  -19.2124    1.0000 </r>
       <r>  -19.2124    1.0000 </r>
       <r>  -19.2122    1.0000 </r>
       <r>  -19.2122    1.0000 </r>
       <r>  -19.2120    1.0000 </r>
       <r>  -19.2119    1.0000 </r>
       <r>  -19.2118    1.0000 </r>
       <r>  -19.2116    1.0000 </r>
       <r>  -19.2116    1.0000 </r>
       <r>  -19.2109    1.0000 </r>
       <r>  -19.2108    1.0000 </r>
       <r>  -19.2108    1.0000 </r>
       <r>  -19.2107    1.0000 </r>
       <r>  -19.2107    1.0000 </r>
       <r>  -19.2106    1.0000 </r>
       <r>  -19.2106    1.0000 </r>
       <r>  -19.2105    1.0000 </r>
       <r>  -19.2105    1.0000 </r>
       <r>  -19.2105    1.0000 </r>
       <r>  -19.2104    1.0000 </r>
       <r>  -19.2104    1.0000 </r>
       <r>  -19.2104    1.0000 </r>
       <r>  -19.2104    1.0000 </r>
       <r>  -19.2103    1.0000 </r>
       <r>  -19.2103    1.0000 </r>
       <r>  -19.2103    1.0000 </r>
       <r>  -19.2102    1.0000 </r>
       <r>  -19.2102    1.0000 </r>
       <r>  -19.2101    1.0000 </r>
       <r>  -19.2101    1.0000 </r>
       <r>  -19.2101    1.0000 </r>
       <r>  -19.2100    1.0000 </r>
       <r>  -19.2099    1.0000 </r>
       <r>  -19.2099    1.0000 </r>
       <r>  -19.2098    1.0000 </r>
       <r>  -19.2097    1.0000 </r>
       <r>  -19.2093    1.0000 </r>
       <r>  -19.2092    1.0000 </r>
       <r>  -19.2092    1.0000 </r>
       <r>  -19.2091    1.0000 </r>
       <r>  -19.2091    1.0000 </r>
       <r>  -19.2090    1.0000 </r>
       <r>  -19.2090    1.0000 </r>
       <r>  -19.2090    1.0000 </r>
       <r>  -19.2089    1.0000 </r>
       <r>  -19.2089    1.0000 </r>
       <r>  -19.2088    1.0000 </r>
       <r>  -19.2086    1.0000 </r>
       <r>  -19.2085    1.0000 </r>
       <r>  -19.2082    1.0000 </r>
       <r>  -19.2082    1.0000 </r>
       <r>  -19.2081    1.0000 </r>
       <r>  -19.2081    1.0000 </r>
       <r>  -19.2080    1.0000 </r>
       <r>  -19.2079    1.0000 </r>
       <r>  -19.2073    1.0000 </r>
       <r>  -19.2073    1.0000 </r>
       <r>  -19.2072    1.0000 </r>
       <r>  -19.2072    1.0000 </r>
       <r>  -19.2072    1.0000 </r>
       <r>  -19.2069    1.0000 </r>
       <r>  -19.1965    1.0000 </r>
       <r>  -19.1965    1.0000 </r>
       <r>  -19.1960    1.0000 </r>
       <r>  -19.1957    1.0000 </r>
       <r>  -19.1956    1.0000 </r>
       <r>  -19.1952    1.0000 </r>
       <r>  -19.1950    1.0000 </r>
       <r>  -19.1949    1.0000 </r>
       <r>  -19.1948    1.0000 </r>
       <r>  -19.1948    1.0000 </r>
       <r>  -19.1947    1.0000 </r>
       <r>  -19.1947    1.0000 </r>
       <r>  -19.1946    1.0000 </r>
       <r>  -19.1945    1.0000 </r>
       <r>  -19.1945    1.0000 </r>
       <r>  -19.1945    1.0000 </r>
       <r>  -19.1944    1.0000 </r>
       <r>  -19.1943    1.0000 </r>
       <r>  -19.1941    1.0000 </r>
       <r>  -19.1941    1.0000 </r>
       <r>  -19.1940    1.0000 </r>
       <r>  -19.1939    1.0000 </r>
       <r>  -19.1938    1.0000 </r>
       <r>  -19.1938    1.0000 </r>
       <r>  -19.1937    1.0000 </r>
       <r>  -19.1937    1.0000 </r>
       <r>  -19.1935    1.0000 </r>
       <r>  -19.1934    1.0000 </r>
       <r>  -19.1933    1.0000 </r>
       <r>  -19.1932    1.0000 </r>
       <r>  -19.1932    1.0000 </r>
       <r>  -19.1931    1.0000 </r>
       <r>  -19.1931    1.0000 </r>
       <r>  -19.1931    1.0000 </r>
       <r>  -19.1930    1.0000 </r>
       <r>  -19.1930    1.0000 </r>
       <r>  -19.1930    1.0000 </r>
       <r>  -19.1929    1.0000 </r>
       <r>  -19.1929    1.0000 </r>
       <r>  -19.1929    1.0000 </r>
       <r>  -19.1929    1.0000 </r>
       <r>  -19.1928    1.0000 </r>
       <r>  -19.1928    1.0000 </r>
       <r>  -19.1928    1.0000 </r>
       <r>  -19.1928    1.0000 </r>
       <r>  -19.1927    1.0000 </r>
       <r>  -19.1927    1.0000 </r>
       <r>  -19.1927    1.0000 </r>
       <r>  -19.1926    1.0000 </r>
       <r>  -19.1926    1.0000 </r>
       <r>  -19.1925    1.0000 </r>
       <r>  -19.1924    1.0000 </r>
       <r>  -19.1924    1.0000 </r>
       <r>  -19.1923    1.0000 </r>
       <r>  -19.1923    1.0000 </r>
       <r>  -19.1922    1.0000 </r>
       <r>  -19.1920    1.0000 </r>
       <r>  -19.1919    1.0000 </r>
       <r>  -19.1919    1.0000 </r>
       <r>  -19.1918    1.0000 </r>
       <r>  -19.1918    1.0000 </r>
       <r>  -19.1918    1.0000 </r>
       <r>  -19.1917    1.0000 </r>
       <r>  -19.1916    1.0000 </r>
       <r>  -19.1916    1.0000 </r>
       <r>  -19.1916    1.0000 </r>
       <r>  -19.1915    1.0000 </r>
       <r>  -19.1915    1.0000 </r>
       <r>  -19.1914    1.0000 </r>
       <r>  -19.1914    1.0000 </r>
       <r>  -19.1914    1.0000 </r>
       <r>  -19.1913    1.0000 </r>
       <r>  -19.1913    1.0000 </r>
       <r>  -19.1912    1.0000 </r>
       <r>  -19.1912    1.0000 </r>
       <r>  -19.1912    1.0000 </r>
       <r>  -19.1912    1.0000 </r>
       <r>  -19.1911    1.0000 </r>
       <r>  -19.1911    1.0000 </r>
       <r>  -19.1910    1.0000 </r>
       <r>  -19.1910    1.0000 </r>
       <r>  -19.1909    1.0000 </r>
       <r>  -19.1909    1.0000 </r>
       <r>  -19.1909    1.0000 </r>
       <r>  -19.1909    1.0000 </r>
       <r>  -19.1908    1.0000 </r>
       <r>  -19.1908    1.0000 </r>
       <r>  -19.1908    1.0000 </r>
       <r>  -19.1907    1.0000 </r>
       <r>  -19.1906    1.0000 </r>
       <r>  -19.1906    1.0000 </r>
       <r>  -19.1906    1.0000 </r>
       <r>  -19.1905    1.0000 </r>
       <r>  -19.1905    1.0000 </r>
       <r>  -19.1905    1.0000 </r>
       <r>  -19.1904    1.0000 </r>
       <r>  -19.1904    1.0000 </r>
       <r>  -19.1904    1.0000 </r>
       <r>  -19.1904    1.0000 </r>
       <r>  -19.1903    1.0000 </r>
       <r>  -19.1902    1.0000 </r>
       <r>  -19.1902    1.0000 </r>
       <r>  -19.1902    1.0000 </r>
       <r>  -19.1902    1.0000 </r>
       <r>  -19.1901    1.0000 </r>
       <r>  -19.1901    1.0000 </r>
       <r>  -19.1900    1.0000 </r>
       <r>  -19.1900    1.0000 </r>
       <r>  -19.1898    1.0000 </r>
       <r>  -19.1897    1.0000 </r>
       <r>  -19.1896    1.0000 </r>
       <r>  -19.1895    1.0000 </r>
       <r>  -19.1895    1.0000 </r>
       <r>  -19.1895    1.0000 </r>
       <r>  -19.1894    1.0000 </r>
       <r>  -19.1894    1.0000 </r>
       <r>  -19.1893    1.0000 </r>
       <r>  -19.1892    1.0000 </r>
       <r>  -19.1891    1.0000 </r>
       <r>  -19.1891    1.0000 </r>
       <r>  -19.1891    1.0000 </r>
       <r>  -19.1891    1.0000 </r>
       <r>  -19.1890    1.0000 </r>
       <r>  -19.1884    1.0000 </r>
       <r>  -19.1884    1.0000 </r>
       <r>  -19.1882    1.0000 </r>
       <r>  -19.1875    1.0000 </r>
       <r>  -19.1874    1.0000 </r>
       <r>   -6.9649    1.0000 </r>
       <r>   -6.6257    1.0000 </r>
       <r>   -6.5478    1.0000 </r>
       <r>   -6.5472    1.0000 </r>
       <r>   -6.5472    1.0000 </r>
       <r>   -6.5465    1.0000 </r>
       <r>   -5.9670    1.0000 </r>
       <r>   -5.9662    1.0000 </r>
       <r>   -5.9662    1.0000 </r>
       <r>   -5.9654    1.0000 </r>
       <r>   -5.9169    1.0000 </r>
       <r>   -5.9162    1.0000 </r>
       <r>   -5.9162    1.0000 </r>
       <r>   -5.9156    1.0000 </r>
       <r>   -5.6687    1.0000 </r>
       <r>   -5.6680    1.0000 </r>
       <r>   -5.6679    1.0000 </r>
       <r>   -5.6672    1.0000 </r>
       <r>   -5.3172    1.0000 </r>
       <r>   -5.3166    1.0000 </r>
       <r>   -5.3166    1.0000 </r>
       <r>   -5.3160    1.0000 </r>
       <r>   -5.3031    1.0000 </r>
       <r>   -5.1439    1.0000 </r>
       <r>   -5.1430    1.0000 </r>
       <r>   -5.1430    1.0000 </r>
       <r>   -5.1422    1.0000 </r>
       <r>   -5.0359    1.0000 </r>
       <r>   -5.0351    1.0000 </r>
       <r>   -5.0351    1.0000 </r>
       <r>   -5.0343    1.0000 </r>
       <r>   -4.6707    1.0000 </r>
       <r>   -4.6691    1.0000 </r>
       <r>   -4.6691    1.0000 </r>
       <r>   -4.6690    1.0000 </r>
       <r>   -4.6690    1.0000 </r>
       <r>   -4.6690    1.0000 </r>
       <r>   -4.6689    1.0000 </r>
       <r>   -4.6673    1.0000 </r>
       <r>   -4.5779    1.0000 </r>
       <r>   -4.5771    1.0000 </r>
       <r>   -4.5771    1.0000 </r>
       <r>   -4.5763    1.0000 </r>
       <r>   -4.4962    1.0000 </r>
       <r>   -4.4947    1.0000 </r>
       <r>   -4.4946    1.0000 </r>
       <r>   -4.4946    1.0000 </r>
       <r>   -4.4946    1.0000 </r>
       <r>   -4.4946    1.0000 </r>
       <r>   -4.4945    1.0000 </r>
       <r>   -4.4929    1.0000 </r>
       <r>   -4.3641    1.0000 </r>
       <r>   -3.9062    1.0000 </r>
       <r>   -3.9054    1.0000 </r>
       <r>   -3.9054    1.0000 </r>
       <r>   -3.9047    1.0000 </r>
       <r>   -3.8946    1.0000 </r>
       <r>   -3.8940    1.0000 </r>
       <r>   -3.8940    1.0000 </r>
       <r>   -3.8933    1.0000 </r>
       <r>   -3.5414    1.0000 </r>
       <r>   -3.5414    1.0000 </r>
       <r>   -3.4971    1.0000 </r>
       <r>   -3.4971    1.0000 </r>
       <r>   -2.7026    1.0000 </r>
       <r>   -2.7026    1.0000 </r>
       <r>   -2.6272    1.0000 </r>
       <r>   -2.6272    1.0000 </r>
       <r>   -2.2764    1.0000 </r>
       <r>   -2.2759    1.0000 </r>
       <r>   -2.2759    1.0000 </r>
       <r>   -2.2754    1.0000 </r>
       <r>   -2.1794    1.0000 </r>
       <r>   -2.1788    1.0000 </r>
       <r>   -2.1787    1.0000 </r>
       <r>   -2.1781    1.0000 </r>
       <r>   -1.8900    1.0000 </r>
       <r>   -1.8887    1.0000 </r>
       <r>   -1.8886    1.0000 </r>
       <r>   -1.8885    1.0000 </r>
       <r>   -1.8885    1.0000 </r>
       <r>   -1.8884    1.0000 </r>
       <r>   -1.8883    1.0000 </r>
       <r>   -1.8871    1.0000 </r>
       <r>   -1.7932    1.0000 </r>
       <r>   -1.7544    1.0000 </r>
       <r>   -1.7536    1.0000 </r>
       <r>   -1.7536    1.0000 </r>
       <r>   -1.7528    1.0000 </r>
       <r>   -1.5194    1.0000 </r>
       <r>   -1.5187    1.0000 </r>
       <r>   -1.5186    1.0000 </r>
       <r>   -1.5179    1.0000 </r>
       <r>   -1.3722    1.0000 </r>
       <r>   -1.3710    1.0000 </r>
       <r>   -1.3710    1.0000 </r>
       <r>   -1.3709    1.0000 </r>
       <r>   -1.3709    1.0000 </r>
       <r>   -1.3708    1.0000 </r>
       <r>   -1.3708    1.0000 </r>
       <r>   -1.3696    1.0000 </r>
       <r>   -1.1902    1.0000 </r>
       <r>   -1.1895    1.0000 </r>
       <r>   -1.1895    1.0000 </r>
       <r>   -1.1887    1.0000 </r>
       <r>   -0.8866    1.0000 </r>
       <r>   -0.8858    1.0000 </r>
       <r>   -0.8858    1.0000 </r>
       <r>   -0.8850    1.0000 </r>
       <r>   -0.4290    1.0000 </r>
       <r>   -0.0577    1.0000 </r>
       <r>   -0.0569    1.0000 </r>
       <r>   -0.0569    1.0000 </r>
       <r>   -0.0561    1.0000 </r>
       <r>   -0.0300    1.0000 </r>
       <r>   -0.0293    1.0000 </r>
       <r>   -0.0293    1.0000 </r>
       <r>   -0.0285    1.0000 </r>
       <r>    0.6823    1.0000 </r>
       <r>    0.6829    1.0000 </r>
       <r>    0.6829    1.0000 </r>
       <r>    0.6835    1.0000 </r>
       <r>    1.0026    1.0000 </r>
       <r>    1.0028    1.0000 </r>
       <r>    1.0029    1.0000 </r>
       <r>    1.0032    1.0000 </r>
       <r>    1.0066    1.0000 </r>
       <r>    1.0068    1.0000 </r>
       <r>    1.0070    1.0000 </r>
       <r>    1.0072    1.0000 </r>
       <r>    1.0454    1.0000 </r>
       <r>    1.0455    1.0000 </r>
       <r>    1.0458    1.0000 </r>
       <r>    1.0460    1.0000 </r>
       <r>    1.5119    1.0000 </r>
       <r>    1.5119    1.0000 </r>
       <r>    1.5590    1.0000 </r>
       <r>    1.5590    1.0000 </r>
       <r>    1.5952    1.0000 </r>
       <r>    1.5955    1.0000 </r>
       <r>    1.5955    1.0000 </r>
       <r>    1.5958    1.0000 </r>
       <r>    1.5959    1.0000 </r>
       <r>    1.5961    1.0000 </r>
       <r>    1.5962    1.0000 </r>
       <r>    1.5965    1.0000 </r>
       <r>    1.7131    1.0000 </r>
       <r>    1.7133    1.0000 </r>
       <r>    1.7135    1.0000 </r>
       <r>    1.7138    1.0000 </r>
       <r>    1.7138    1.0000 </r>
       <r>    1.7141    1.0000 </r>
       <r>    1.7142    1.0000 </r>
       <r>    1.7145    1.0000 </r>
       <r>    1.7995    1.0000 </r>
       <r>    1.8001    1.0000 </r>
       <r>    1.8001    1.0000 </r>
       <r>    1.8007    1.0000 </r>
       <r>    1.9522    1.0000 </r>
       <r>    1.9522    1.0000 </r>
       <r>    1.9652    1.0000 </r>
       <r>    1.9653    1.0000 </r>
       <r>    2.0014    1.0000 </r>
       <r>    2.0021    1.0000 </r>
       <r>    2.0021    1.0000 </r>
       <r>    2.0027    1.0000 </r>
       <r>    2.0385    1.0000 </r>
       <r>    2.0385    1.0000 </r>
       <r>    2.0391    1.0000 </r>
       <r>    2.0391    1.0000 </r>
       <r>    2.0750    1.0000 </r>
       <r>    2.0753    1.0000 </r>
       <r>    2.0756    1.0000 </r>
       <r>    2.0759    1.0000 </r>
       <r>    2.3327    1.0000 </r>
       <r>    2.3327    1.0000 </r>
       <r>    2.4804    1.0000 </r>
       <r>    2.4808    1.0000 </r>
       <r>    2.4811    1.0000 </r>
       <r>    2.4811    1.0000 </r>
       <r>    2.4813    1.0000 </r>
       <r>    2.4813    1.0000 </r>
       <r>    2.4815    1.0000 </r>
       <r>    2.4819    1.0000 </r>
       <r>    2.5346    1.0000 </r>
       <r>    2.5661    1.0000 </r>
       <r>    2.5667    1.0000 </r>
       <r>    2.5667    1.0000 </r>
       <r>    2.5674    1.0000 </r>
       <r>    2.6636    1.0000 </r>
       <r>    2.6636    1.0000 </r>
       <r>    2.6680    1.0000 </r>
       <r>    2.6683    1.0000 </r>
       <r>    2.6683    1.0000 </r>
       <r>    2.6687    1.0000 </r>
       <r>    2.7778    1.0000 </r>
       <r>    2.7779    1.0000 </r>
       <r>    2.7784    1.0000 </r>
       <r>    2.7784    1.0000 </r>
       <r>    2.9440    1.0000 </r>
       <r>    2.9446    1.0000 </r>
       <r>    2.9449    1.0000 </r>
       <r>    2.9450    1.0000 </r>
       <r>    2.9450    1.0000 </r>
       <r>    2.9451    1.0000 </r>
       <r>    2.9454    1.0000 </r>
       <r>    2.9460    1.0000 </r>
       <r>    3.0069    1.0000 </r>
       <r>    3.0074    1.0000 </r>
       <r>    3.0075    1.0000 </r>
       <r>    3.0080    1.0000 </r>
       <r>    3.1098    1.0000 </r>
       <r>    3.1105    1.0000 </r>
       <r>    3.1105    1.0000 </r>
       <r>    3.1113    1.0000 </r>
       <r>    3.2381    1.0000 </r>
       <r>    3.2385    1.0000 </r>
       <r>    3.2385    1.0000 </r>
       <r>    3.2388    1.0000 </r>
       <r>    3.4317    1.0000 </r>
       <r>    3.4321    1.0000 </r>
       <r>    3.4323    1.0000 </r>
       <r>    3.4327    1.0000 </r>
       <r>    3.6840    1.0000 </r>
       <r>    3.6847    1.0000 </r>
       <r>    3.6847    1.0000 </r>
       <r>    3.6852    1.0000 </r>
       <r>    3.6963    1.0000 </r>
       <r>    3.6970    1.0000 </r>
       <r>    3.6970    1.0000 </r>
       <r>    3.6978    1.0000 </r>
       <r>    3.7496    1.0000 </r>
       <r>    3.7502    1.0000 </r>
       <r>    3.7503    1.0000 </r>
       <r>    3.7503    1.0000 </r>
       <r>    3.7505    1.0000 </r>
       <r>    3.7506    1.0000 </r>
       <r>    3.7507    1.0000 </r>
       <r>    3.7513    1.0000 </r>
       <r>    3.7792    1.0000 </r>
       <r>    3.7796    1.0000 </r>
       <r>    3.7800    1.0000 </r>
       <r>    3.7804    1.0000 </r>
       <r>    3.8032    1.0000 </r>
       <r>    3.8036    1.0000 </r>
       <r>    3.8037    1.0000 </r>
       <r>    3.8040    1.0000 </r>
       <r>    3.9049    1.0000 </r>
       <r>    3.9050    1.0000 </r>
       <r>    4.0441    1.0000 </r>
       <r>    4.6754    1.0000 </r>
       <r>    4.6754    1.0000 </r>
       <r>    4.7145    1.0000 </r>
       <r>    4.7148    1.0000 </r>
       <r>    4.7148    1.0000 </r>
       <r>    4.7150    1.0000 </r>
       <r>    5.7217    0.0000 </r>
       <r>    5.8500    0.0000 </r>
       <r>    6.3489    0.0000 </r>
       <r>    6.3490    0.0000 </r>
       <r>    6.3827    0.0000 </r>
       <r>    6.3829    0.0000 </r>
       <r>    6.3829    0.0000 </r>
       <r>    6.3832    0.0000 </r>
       <r>    6.4296    0.0000 </r>
       <r>    6.5386    0.0000 </r>
       <r>    6.5390    0.0000 </r>
       <r>    6.5390    0.0000 </r>
       <r>    6.5393    0.0000 </r>
       <r>    6.6425    0.0000 </r>
       <r>    6.6425    0.0000 </r>
       <r>    6.7639    0.0000 </r>
       <r>    6.8301    0.0000 </r>
       <r>    6.8305    0.0000 </r>
       <r>    6.8309    0.0000 </r>
       <r>    6.8310    0.0000 </r>
       <r>    6.8310    0.0000 </r>
       <r>    6.8310    0.0000 </r>
       <r>    6.8314    0.0000 </r>
       <r>    6.8318    0.0000 </r>
       <r>    6.8438    0.0000 </r>
       <r>    6.8441    0.0000 </r>
       <r>    6.8441    0.0000 </r>
       <r>    6.8444    0.0000 </r>
       <r>    6.8573    0.0000 </r>
       <r>    6.8574    0.0000 </r>
       <r>    6.8580    0.0000 </r>
       <r>    6.8580    0.0000 </r>
       <r>    6.9958    0.0000 </r>
       <r>    6.9960    0.0000 </r>
       <r>    6.9960    0.0000 </r>
       <r>    6.9961    0.0000 </r>
       <r>    7.1382    0.0000 </r>
       <r>    7.1386    0.0000 </r>
       <r>    7.1386    0.0000 </r>
       <r>    7.1390    0.0000 </r>
       <r>    7.1866    0.0000 </r>
       <r>    7.2115    0.0000 </r>
       <r>    7.2117    0.0000 </r>
       <r>    7.2117    0.0000 </r>
       <r>    7.2119    0.0000 </r>
       <r>    7.3330    0.0000 </r>
       <r>    7.3660    0.0000 </r>
       <r>    7.3663    0.0000 </r>
       <r>    7.3669    0.0000 </r>
       <r>    7.3669    0.0000 </r>
       <r>    7.3670    0.0000 </r>
       <r>    7.3670    0.0000 </r>
       <r>    7.3677    0.0000 </r>
       <r>    7.3679    0.0000 </r>
       <r>    7.5118    0.0000 </r>
       <r>    7.5328    0.0000 </r>
       <r>    7.5331    0.0000 </r>
       <r>    7.5334    0.0000 </r>
       <r>    7.5337    0.0000 </r>
       <r>    7.7103    0.0000 </r>
       <r>    7.7103    0.0000 </r>
       <r>    8.0045    0.0000 </r>
       <r>    8.0046    0.0000 </r>
       <r>    8.0050    0.0000 </r>
       <r>    8.0051    0.0000 </r>
       <r>    8.0150    0.0000 </r>
       <r>    8.0150    0.0000 </r>
       <r>    8.1262    0.0000 </r>
       <r>    8.1264    0.0000 </r>
       <r>    8.1269    0.0000 </r>
       <r>    8.1269    0.0000 </r>
       <r>    8.1270    0.0000 </r>
       <r>    8.1270    0.0000 </r>
       <r>    8.1274    0.0000 </r>
       <r>    8.1277    0.0000 </r>
       <r>    8.2143    0.0000 </r>
       <r>    8.2143    0.0000 </r>
       <r>    8.2439    0.0000 </r>
       <r>    8.2443    0.0000 </r>
       <r>    8.2443    0.0000 </r>
       <r>    8.2448    0.0000 </r>
       <r>    8.2786    0.0000 </r>
       <r>    8.2786    0.0000 </r>
       <r>    8.2792    0.0000 </r>
       <r>    8.2792    0.0000 </r>
       <r>    8.3552    0.0000 </r>
       <r>    8.3554    0.0000 </r>
       <r>    8.3556    0.0000 </r>
       <r>    8.3558    0.0000 </r>
       <r>    8.3671    0.0000 </r>
       <r>    8.3677    0.0000 </r>
       <r>    8.3677    0.0000 </r>
       <r>    8.3683    0.0000 </r>
       <r>    8.3934    0.0000 </r>
       <r>    8.3937    0.0000 </r>
       <r>    8.3940    0.0000 </r>
       <r>    8.3943    0.0000 </r>
       <r>    8.5094    0.0000 </r>
       <r>    8.5604    0.0000 </r>
       <r>    8.5609    0.0000 </r>
       <r>    8.5609    0.0000 </r>
       <r>    8.5614    0.0000 </r>
       <r>    8.6525    0.0000 </r>
       <r>    8.6531    0.0000 </r>
       <r>    8.6531    0.0000 </r>
       <r>    8.6537    0.0000 </r>
       <r>    8.8672    0.0000 </r>
       <r>    8.8680    0.0000 </r>
       <r>    8.8680    0.0000 </r>
       <r>    8.8688    0.0000 </r>
       <r>    8.9375    0.0000 </r>
       <r>    8.9380    0.0000 </r>
       <r>    8.9381    0.0000 </r>
       <r>    8.9385    0.0000 </r>
       <r>    8.9429    0.0000 </r>
       <r>    8.9431    0.0000 </r>
       <r>    8.9438    0.0000 </r>
       <r>    8.9438    0.0000 </r>
       <r>    8.9439    0.0000 </r>
       <r>    8.9440    0.0000 </r>
       <r>    8.9448    0.0000 </r>
       <r>    8.9450    0.0000 </r>
       <r>    9.1175    0.0000 </r>
       <r>    9.1186    0.0000 </r>
       <r>    9.1220    0.0000 </r>
       <r>    9.1248    0.0000 </r>
       <r>    9.2661    0.0000 </r>
       <r>    9.2721    0.0000 </r>
      </set>
      <set comment="kpoint 7">
       <r>  -19.2231    1.0000 </r>
       <r>  -19.2230    1.0000 </r>
       <r>  -19.2230    1.0000 </r>
       <r>  -19.2228    1.0000 </r>
       <r>  -19.2224    1.0000 </r>
       <r>  -19.2223    1.0000 </r>
       <r>  -19.2222    1.0000 </r>
       <r>  -19.2219    1.0000 </r>
       <r>  -19.2219    1.0000 </r>
       <r>  -19.2217    1.0000 </r>
       <r>  -19.2216    1.0000 </r>
       <r>  -19.2207    1.0000 </r>
       <r>  -19.2206    1.0000 </r>
       <r>  -19.2206    1.0000 </r>
       <r>  -19.2204    1.0000 </r>
       <r>  -19.2203    1.0000 </r>
       <r>  -19.2202    1.0000 </r>
       <r>  -19.2201    1.0000 </r>
       <r>  -19.2200    1.0000 </r>
       <r>  -19.2200    1.0000 </r>
       <r>  -19.2199    1.0000 </r>
       <r>  -19.2197    1.0000 </r>
       <r>  -19.2197    1.0000 </r>
       <r>  -19.2194    1.0000 </r>
       <r>  -19.2193    1.0000 </r>
       <r>  -19.2192    1.0000 </r>
       <r>  -19.2191    1.0000 </r>
       <r>  -19.2190    1.0000 </r>
       <r>  -19.2189    1.0000 </r>
       <r>  -19.2189    1.0000 </r>
       <r>  -19.2189    1.0000 </r>
       <r>  -19.2189    1.0000 </r>
       <r>  -19.2188    1.0000 </r>
       <r>  -19.2188    1.0000 </r>
       <r>  -19.2188    1.0000 </r>
       <r>  -19.2188    1.0000 </r>
       <r>  -19.2187    1.0000 </r>
       <r>  -19.2187    1.0000 </r>
       <r>  -19.2186    1.0000 </r>
       <r>  -19.2186    1.0000 </r>
       <r>  -19.2185    1.0000 </r>
       <r>  -19.2184    1.0000 </r>
       <r>  -19.2184    1.0000 </r>
       <r>  -19.2184    1.0000 </r>
       <r>  -19.2184    1.0000 </r>
       <r>  -19.2183    1.0000 </r>
       <r>  -19.2183    1.0000 </r>
       <r>  -19.2182    1.0000 </r>
       <r>  -19.2182    1.0000 </r>
       <r>  -19.2181    1.0000 </r>
       <r>  -19.2181    1.0000 </r>
       <r>  -19.2181    1.0000 </r>
       <r>  -19.2180    1.0000 </r>
       <r>  -19.2180    1.0000 </r>
       <r>  -19.2180    1.0000 </r>
       <r>  -19.2179    1.0000 </r>
       <r>  -19.2179    1.0000 </r>
       <r>  -19.2179    1.0000 </r>
       <r>  -19.2178    1.0000 </r>
       <r>  -19.2178    1.0000 </r>
       <r>  -19.2178    1.0000 </r>
       <r>  -19.2177    1.0000 </r>
       <r>  -19.2175    1.0000 </r>
       <r>  -19.2175    1.0000 </r>
       <r>  -19.2171    1.0000 </r>
       <r>  -19.2166    1.0000 </r>
       <r>  -19.2165    1.0000 </r>
       <r>  -19.2164    1.0000 </r>
       <r>  -19.2163    1.0000 </r>
       <r>  -19.2162    1.0000 </r>
       <r>  -19.2155    1.0000 </r>
       <r>  -19.2154    1.0000 </r>
       <r>  -19.2152    1.0000 </r>
       <r>  -19.2151    1.0000 </r>
       <r>  -19.2150    1.0000 </r>
       <r>  -19.2147    1.0000 </r>
       <r>  -19.2145    1.0000 </r>
       <r>  -19.2145    1.0000 </r>
       <r>  -19.2144    1.0000 </r>
       <r>  -19.2143    1.0000 </r>
       <r>  -19.2141    1.0000 </r>
       <r>  -19.2141    1.0000 </r>
       <r>  -19.2140    1.0000 </r>
       <r>  -19.2139    1.0000 </r>
       <r>  -19.2139    1.0000 </r>
       <r>  -19.2138    1.0000 </r>
       <r>  -19.2138    1.0000 </r>
       <r>  -19.2138    1.0000 </r>
       <r>  -19.2137    1.0000 </r>
       <r>  -19.2137    1.0000 </r>
       <r>  -19.2136    1.0000 </r>
       <r>  -19.2135    1.0000 </r>
       <r>  -19.2135    1.0000 </r>
       <r>  -19.2135    1.0000 </r>
       <r>  -19.2134    1.0000 </r>
       <r>  -19.2133    1.0000 </r>
       <r>  -19.2133    1.0000 </r>
       <r>  -19.2133    1.0000 </r>
       <r>  -19.2132    1.0000 </r>
       <r>  -19.2132    1.0000 </r>
       <r>  -19.2132    1.0000 </r>
       <r>  -19.2131    1.0000 </r>
       <r>  -19.2131    1.0000 </r>
       <r>  -19.2131    1.0000 </r>
       <r>  -19.2130    1.0000 </r>
       <r>  -19.2130    1.0000 </r>
       <r>  -19.2130    1.0000 </r>
       <r>  -19.2130    1.0000 </r>
       <r>  -19.2130    1.0000 </r>
       <r>  -19.2129    1.0000 </r>
       <r>  -19.2129    1.0000 </r>
       <r>  -19.2129    1.0000 </r>
       <r>  -19.2128    1.0000 </r>
       <r>  -19.2128    1.0000 </r>
       <r>  -19.2128    1.0000 </r>
       <r>  -19.2128    1.0000 </r>
       <r>  -19.2127    1.0000 </r>
       <r>  -19.2127    1.0000 </r>
       <r>  -19.2126    1.0000 </r>
       <r>  -19.2126    1.0000 </r>
       <r>  -19.2125    1.0000 </r>
       <r>  -19.2125    1.0000 </r>
       <r>  -19.2124    1.0000 </r>
       <r>  -19.2123    1.0000 </r>
       <r>  -19.2123    1.0000 </r>
       <r>  -19.2123    1.0000 </r>
       <r>  -19.2122    1.0000 </r>
       <r>  -19.2122    1.0000 </r>
       <r>  -19.2122    1.0000 </r>
       <r>  -19.2122    1.0000 </r>
       <r>  -19.2121    1.0000 </r>
       <r>  -19.2121    1.0000 </r>
       <r>  -19.2120    1.0000 </r>
       <r>  -19.2120    1.0000 </r>
       <r>  -19.2120    1.0000 </r>
       <r>  -19.2119    1.0000 </r>
       <r>  -19.2119    1.0000 </r>
       <r>  -19.2118    1.0000 </r>
       <r>  -19.2117    1.0000 </r>
       <r>  -19.2116    1.0000 </r>
       <r>  -19.2115    1.0000 </r>
       <r>  -19.2115    1.0000 </r>
       <r>  -19.2114    1.0000 </r>
       <r>  -19.2113    1.0000 </r>
       <r>  -19.2113    1.0000 </r>
       <r>  -19.2112    1.0000 </r>
       <r>  -19.2110    1.0000 </r>
       <r>  -19.2109    1.0000 </r>
       <r>  -19.2108    1.0000 </r>
       <r>  -19.2108    1.0000 </r>
       <r>  -19.2107    1.0000 </r>
       <r>  -19.2106    1.0000 </r>
       <r>  -19.2106    1.0000 </r>
       <r>  -19.2105    1.0000 </r>
       <r>  -19.2102    1.0000 </r>
       <r>  -19.2101    1.0000 </r>
       <r>  -19.2100    1.0000 </r>
       <r>  -19.2100    1.0000 </r>
       <r>  -19.2098    1.0000 </r>
       <r>  -19.2098    1.0000 </r>
       <r>  -19.2096    1.0000 </r>
       <r>  -19.2095    1.0000 </r>
       <r>  -19.2094    1.0000 </r>
       <r>  -19.2094    1.0000 </r>
       <r>  -19.2093    1.0000 </r>
       <r>  -19.2092    1.0000 </r>
       <r>  -19.2092    1.0000 </r>
       <r>  -19.2092    1.0000 </r>
       <r>  -19.2091    1.0000 </r>
       <r>  -19.2091    1.0000 </r>
       <r>  -19.2091    1.0000 </r>
       <r>  -19.2091    1.0000 </r>
       <r>  -19.2090    1.0000 </r>
       <r>  -19.2090    1.0000 </r>
       <r>  -19.2089    1.0000 </r>
       <r>  -19.2089    1.0000 </r>
       <r>  -19.2088    1.0000 </r>
       <r>  -19.2088    1.0000 </r>
       <r>  -19.2086    1.0000 </r>
       <r>  -19.2085    1.0000 </r>
       <r>  -19.2084    1.0000 </r>
       <r>  -19.2081    1.0000 </r>
       <r>  -19.2080    1.0000 </r>
       <r>  -19.2080    1.0000 </r>
       <r>  -19.2079    1.0000 </r>
       <r>  -19.2079    1.0000 </r>
       <r>  -19.2078    1.0000 </r>
       <r>  -19.2076    1.0000 </r>
       <r>  -19.2076    1.0000 </r>
       <r>  -19.2074    1.0000 </r>
       <r>  -19.2072    1.0000 </r>
       <r>  -19.2069    1.0000 </r>
       <r>  -19.1965    1.0000 </r>
       <r>  -19.1965    1.0000 </r>
       <r>  -19.1957    1.0000 </r>
       <r>  -19.1956    1.0000 </r>
       <r>  -19.1955    1.0000 </r>
       <r>  -19.1954    1.0000 </r>
       <r>  -19.1953    1.0000 </r>
       <r>  -19.1953    1.0000 </r>
       <r>  -19.1952    1.0000 </r>
       <r>  -19.1949    1.0000 </r>
       <r>  -19.1948    1.0000 </r>
       <r>  -19.1947    1.0000 </r>
       <r>  -19.1946    1.0000 </r>
       <r>  -19.1946    1.0000 </r>
       <r>  -19.1945    1.0000 </r>
       <r>  -19.1944    1.0000 </r>
       <r>  -19.1943    1.0000 </r>
       <r>  -19.1940    1.0000 </r>
       <r>  -19.1939    1.0000 </r>
       <r>  -19.1939    1.0000 </r>
       <r>  -19.1938    1.0000 </r>
       <r>  -19.1937    1.0000 </r>
       <r>  -19.1937    1.0000 </r>
       <r>  -19.1936    1.0000 </r>
       <r>  -19.1936    1.0000 </r>
       <r>  -19.1935    1.0000 </r>
       <r>  -19.1935    1.0000 </r>
       <r>  -19.1935    1.0000 </r>
       <r>  -19.1934    1.0000 </r>
       <r>  -19.1934    1.0000 </r>
       <r>  -19.1934    1.0000 </r>
       <r>  -19.1933    1.0000 </r>
       <r>  -19.1933    1.0000 </r>
       <r>  -19.1932    1.0000 </r>
       <r>  -19.1932    1.0000 </r>
       <r>  -19.1931    1.0000 </r>
       <r>  -19.1931    1.0000 </r>
       <r>  -19.1930    1.0000 </r>
       <r>  -19.1930    1.0000 </r>
       <r>  -19.1929    1.0000 </r>
       <r>  -19.1929    1.0000 </r>
       <r>  -19.1928    1.0000 </r>
       <r>  -19.1927    1.0000 </r>
       <r>  -19.1927    1.0000 </r>
       <r>  -19.1926    1.0000 </r>
       <r>  -19.1926    1.0000 </r>
       <r>  -19.1925    1.0000 </r>
       <r>  -19.1925    1.0000 </r>
       <r>  -19.1925    1.0000 </r>
       <r>  -19.1925    1.0000 </r>
       <r>  -19.1924    1.0000 </r>
       <r>  -19.1924    1.0000 </r>
       <r>  -19.1923    1.0000 </r>
       <r>  -19.1923    1.0000 </r>
       <r>  -19.1922    1.0000 </r>
       <r>  -19.1922    1.0000 </r>
       <r>  -19.1921    1.0000 </r>
       <r>  -19.1921    1.0000 </r>
       <r>  -19.1920    1.0000 </r>
       <r>  -19.1920    1.0000 </r>
       <r>  -19.1919    1.0000 </r>
       <r>  -19.1919    1.0000 </r>
       <r>  -19.1919    1.0000 </r>
       <r>  -19.1918    1.0000 </r>
       <r>  -19.1918    1.0000 </r>
       <r>  -19.1917    1.0000 </r>
       <r>  -19.1916    1.0000 </r>
       <r>  -19.1915    1.0000 </r>
       <r>  -19.1914    1.0000 </r>
       <r>  -19.1913    1.0000 </r>
       <r>  -19.1913    1.0000 </r>
       <r>  -19.1912    1.0000 </r>
       <r>  -19.1912    1.0000 </r>
       <r>  -19.1911    1.0000 </r>
       <r>  -19.1911    1.0000 </r>
       <r>  -19.1911    1.0000 </r>
       <r>  -19.1910    1.0000 </r>
       <r>  -19.1910    1.0000 </r>
       <r>  -19.1910    1.0000 </r>
       <r>  -19.1910    1.0000 </r>
       <r>  -19.1909    1.0000 </r>
       <r>  -19.1909    1.0000 </r>
       <r>  -19.1909    1.0000 </r>
       <r>  -19.1909    1.0000 </r>
       <r>  -19.1908    1.0000 </r>
       <r>  -19.1908    1.0000 </r>
       <r>  -19.1908    1.0000 </r>
       <r>  -19.1907    1.0000 </r>
       <r>  -19.1907    1.0000 </r>
       <r>  -19.1907    1.0000 </r>
       <r>  -19.1907    1.0000 </r>
       <r>  -19.1907    1.0000 </r>
       <r>  -19.1906    1.0000 </r>
       <r>  -19.1906    1.0000 </r>
       <r>  -19.1905    1.0000 </r>
       <r>  -19.1905    1.0000 </r>
       <r>  -19.1904    1.0000 </r>
       <r>  -19.1904    1.0000 </r>
       <r>  -19.1904    1.0000 </r>
       <r>  -19.1903    1.0000 </r>
       <r>  -19.1903    1.0000 </r>
       <r>  -19.1902    1.0000 </r>
       <r>  -19.1902    1.0000 </r>
       <r>  -19.1902    1.0000 </r>
       <r>  -19.1901    1.0000 </r>
       <r>  -19.1901    1.0000 </r>
       <r>  -19.1900    1.0000 </r>
       <r>  -19.1900    1.0000 </r>
       <r>  -19.1900    1.0000 </r>
       <r>  -19.1899    1.0000 </r>
       <r>  -19.1898    1.0000 </r>
       <r>  -19.1898    1.0000 </r>
       <r>  -19.1896    1.0000 </r>
       <r>  -19.1896    1.0000 </r>
       <r>  -19.1895    1.0000 </r>
       <r>  -19.1893    1.0000 </r>
       <r>  -19.1893    1.0000 </r>
       <r>  -19.1890    1.0000 </r>
       <r>  -19.1889    1.0000 </r>
       <r>  -19.1889    1.0000 </r>
       <r>  -19.1889    1.0000 </r>
       <r>  -19.1888    1.0000 </r>
       <r>  -19.1888    1.0000 </r>
       <r>  -19.1886    1.0000 </r>
       <r>  -19.1886    1.0000 </r>
       <r>  -19.1885    1.0000 </r>
       <r>  -19.1875    1.0000 </r>
       <r>  -19.1874    1.0000 </r>
       <r>   -6.8523    1.0000 </r>
       <r>   -6.7680    1.0000 </r>
       <r>   -6.7674    1.0000 </r>
       <r>   -6.5172    1.0000 </r>
       <r>   -6.5168    1.0000 </r>
       <r>   -6.1940    1.0000 </r>
       <r>   -6.1126    1.0000 </r>
       <r>   -6.1120    1.0000 </r>
       <r>   -6.1119    1.0000 </r>
       <r>   -6.1113    1.0000 </r>
       <r>   -5.8693    1.0000 </r>
       <r>   -5.8685    1.0000 </r>
       <r>   -5.5859    1.0000 </r>
       <r>   -5.5850    1.0000 </r>
       <r>   -5.5849    1.0000 </r>
       <r>   -5.5844    1.0000 </r>
       <r>   -5.5421    1.0000 </r>
       <r>   -5.5416    1.0000 </r>
       <r>   -5.4766    1.0000 </r>
       <r>   -5.4760    1.0000 </r>
       <r>   -5.4760    1.0000 </r>
       <r>   -5.4753    1.0000 </r>
       <r>   -5.3538    1.0000 </r>
       <r>   -5.3530    1.0000 </r>
       <r>   -5.2156    1.0000 </r>
       <r>   -5.2151    1.0000 </r>
       <r>   -5.0349    1.0000 </r>
       <r>   -5.0340    1.0000 </r>
       <r>   -5.0339    1.0000 </r>
       <r>   -5.0334    1.0000 </r>
       <r>   -4.9627    1.0000 </r>
       <r>   -4.9620    1.0000 </r>
       <r>   -4.8138    1.0000 </r>
       <r>   -4.8129    1.0000 </r>
       <r>   -4.7515    1.0000 </r>
       <r>   -4.7507    1.0000 </r>
       <r>   -4.7170    1.0000 </r>
       <r>   -4.7163    1.0000 </r>
       <r>   -4.6088    1.0000 </r>
       <r>   -4.6082    1.0000 </r>
       <r>   -4.6082    1.0000 </r>
       <r>   -4.6073    1.0000 </r>
       <r>   -4.4147    1.0000 </r>
       <r>   -4.4136    1.0000 </r>
       <r>   -4.4136    1.0000 </r>
       <r>   -4.4129    1.0000 </r>
       <r>   -4.3016    1.0000 </r>
       <r>   -4.3009    1.0000 </r>
       <r>   -4.1305    1.0000 </r>
       <r>   -4.1301    1.0000 </r>
       <r>   -4.1237    1.0000 </r>
       <r>   -4.1219    1.0000 </r>
       <r>   -4.1212    1.0000 </r>
       <r>   -4.1211    1.0000 </r>
       <r>   -4.1202    1.0000 </r>
       <r>   -4.1188    1.0000 </r>
       <r>   -4.1181    1.0000 </r>
       <r>   -3.7915    1.0000 </r>
       <r>   -3.7907    1.0000 </r>
       <r>   -3.7906    1.0000 </r>
       <r>   -3.7899    1.0000 </r>
       <r>   -3.7040    1.0000 </r>
       <r>   -3.7032    1.0000 </r>
       <r>   -3.5799    1.0000 </r>
       <r>   -2.6293    1.0000 </r>
       <r>   -2.4327    1.0000 </r>
       <r>   -2.4322    1.0000 </r>
       <r>   -2.3756    1.0000 </r>
       <r>   -2.3754    1.0000 </r>
       <r>   -2.3753    1.0000 </r>
       <r>   -2.3748    1.0000 </r>
       <r>   -2.0633    1.0000 </r>
       <r>   -2.0627    1.0000 </r>
       <r>   -2.0439    1.0000 </r>
       <r>   -2.0429    1.0000 </r>
       <r>   -2.0427    1.0000 </r>
       <r>   -2.0425    1.0000 </r>
       <r>   -2.0223    1.0000 </r>
       <r>   -1.9573    1.0000 </r>
       <r>   -1.9565    1.0000 </r>
       <r>   -1.9296    1.0000 </r>
       <r>   -1.9288    1.0000 </r>
       <r>   -1.8645    1.0000 </r>
       <r>   -1.8637    1.0000 </r>
       <r>   -1.8297    1.0000 </r>
       <r>   -1.8292    1.0000 </r>
       <r>   -1.7281    1.0000 </r>
       <r>   -1.7269    1.0000 </r>
       <r>   -1.7268    1.0000 </r>
       <r>   -1.7267    1.0000 </r>
       <r>   -1.7037    1.0000 </r>
       <r>   -1.7034    1.0000 </r>
       <r>   -1.7031    1.0000 </r>
       <r>   -1.7024    1.0000 </r>
       <r>   -1.4921    1.0000 </r>
       <r>   -1.4918    1.0000 </r>
       <r>   -1.4917    1.0000 </r>
       <r>   -1.4905    1.0000 </r>
       <r>   -1.2170    1.0000 </r>
       <r>   -1.2163    1.0000 </r>
       <r>   -1.1756    1.0000 </r>
       <r>   -1.1750    1.0000 </r>
       <r>   -0.9989    1.0000 </r>
       <r>   -0.9983    1.0000 </r>
       <r>   -0.8626    1.0000 </r>
       <r>   -0.8618    1.0000 </r>
       <r>   -0.5881    1.0000 </r>
       <r>   -0.5873    1.0000 </r>
       <r>   -0.4893    1.0000 </r>
       <r>   -0.4892    1.0000 </r>
       <r>   -0.4889    1.0000 </r>
       <r>   -0.4882    1.0000 </r>
       <r>   -0.3139    1.0000 </r>
       <r>   -0.3128    1.0000 </r>
       <r>   -0.3128    1.0000 </r>
       <r>   -0.3123    1.0000 </r>
       <r>    0.2643    1.0000 </r>
       <r>    0.2649    1.0000 </r>
       <r>    0.7359    1.0000 </r>
       <r>    0.7361    1.0000 </r>
       <r>    0.7364    1.0000 </r>
       <r>    0.7371    1.0000 </r>
       <r>    0.8140    1.0000 </r>
       <r>    0.9577    1.0000 </r>
       <r>    0.9583    1.0000 </r>
       <r>    0.9586    1.0000 </r>
       <r>    0.9588    1.0000 </r>
       <r>    0.9590    1.0000 </r>
       <r>    0.9761    1.0000 </r>
       <r>    0.9764    1.0000 </r>
       <r>    1.1448    1.0000 </r>
       <r>    1.1452    1.0000 </r>
       <r>    1.2444    1.0000 </r>
       <r>    1.2446    1.0000 </r>
       <r>    1.2450    1.0000 </r>
       <r>    1.2453    1.0000 </r>
       <r>    1.3425    1.0000 </r>
       <r>    1.4035    1.0000 </r>
       <r>    1.4039    1.0000 </r>
       <r>    1.4281    1.0000 </r>
       <r>    1.4283    1.0000 </r>
       <r>    1.4285    1.0000 </r>
       <r>    1.4287    1.0000 </r>
       <r>    1.4969    1.0000 </r>
       <r>    1.4972    1.0000 </r>
       <r>    1.4975    1.0000 </r>
       <r>    1.4978    1.0000 </r>
       <r>    1.5859    1.0000 </r>
       <r>    1.5862    1.0000 </r>
       <r>    1.9367    1.0000 </r>
       <r>    1.9372    1.0000 </r>
       <r>    1.9910    1.0000 </r>
       <r>    1.9912    1.0000 </r>
       <r>    2.0113    1.0000 </r>
       <r>    2.0115    1.0000 </r>
       <r>    2.0298    1.0000 </r>
       <r>    2.0301    1.0000 </r>
       <r>    2.1434    1.0000 </r>
       <r>    2.1435    1.0000 </r>
       <r>    2.1436    1.0000 </r>
       <r>    2.1440    1.0000 </r>
       <r>    2.1876    1.0000 </r>
       <r>    2.1882    1.0000 </r>
       <r>    2.2068    1.0000 </r>
       <r>    2.2074    1.0000 </r>
       <r>    2.2274    1.0000 </r>
       <r>    2.2275    1.0000 </r>
       <r>    2.2278    1.0000 </r>
       <r>    2.2281    1.0000 </r>
       <r>    2.2713    1.0000 </r>
       <r>    2.2716    1.0000 </r>
       <r>    2.3334    1.0000 </r>
       <r>    2.3341    1.0000 </r>
       <r>    2.3758    1.0000 </r>
       <r>    2.3762    1.0000 </r>
       <r>    2.3871    1.0000 </r>
       <r>    2.3878    1.0000 </r>
       <r>    2.4123    1.0000 </r>
       <r>    2.4348    1.0000 </r>
       <r>    2.4350    1.0000 </r>
       <r>    2.4353    1.0000 </r>
       <r>    2.4357    1.0000 </r>
       <r>    2.4953    1.0000 </r>
       <r>    2.4961    1.0000 </r>
       <r>    2.4962    1.0000 </r>
       <r>    2.4965    1.0000 </r>
       <r>    2.5166    1.0000 </r>
       <r>    2.5172    1.0000 </r>
       <r>    2.5926    1.0000 </r>
       <r>    2.5932    1.0000 </r>
       <r>    2.5934    1.0000 </r>
       <r>    2.5938    1.0000 </r>
       <r>    2.6746    1.0000 </r>
       <r>    2.6750    1.0000 </r>
       <r>    2.6752    1.0000 </r>
       <r>    2.6754    1.0000 </r>
       <r>    2.6852    1.0000 </r>
       <r>    2.6853    1.0000 </r>
       <r>    2.7080    1.0000 </r>
       <r>    2.8028    1.0000 </r>
       <r>    2.8034    1.0000 </r>
       <r>    2.8088    1.0000 </r>
       <r>    2.8095    1.0000 </r>
       <r>    2.9059    1.0000 </r>
       <r>    2.9068    1.0000 </r>
       <r>    2.9071    1.0000 </r>
       <r>    2.9072    1.0000 </r>
       <r>    2.9528    1.0000 </r>
       <r>    3.0158    1.0000 </r>
       <r>    3.0165    1.0000 </r>
       <r>    3.1077    1.0000 </r>
       <r>    3.1081    1.0000 </r>
       <r>    3.1083    1.0000 </r>
       <r>    3.1086    1.0000 </r>
       <r>    3.1559    1.0000 </r>
       <r>    3.1578    1.0000 </r>
       <r>    3.1582    1.0000 </r>
       <r>    3.1588    1.0000 </r>
       <r>    3.1590    1.0000 </r>
       <r>    3.1593    1.0000 </r>
       <r>    3.1595    1.0000 </r>
       <r>    3.3337    1.0000 </r>
       <r>    3.3346    1.0000 </r>
       <r>    3.3938    1.0000 </r>
       <r>    3.3942    1.0000 </r>
       <r>    3.4138    1.0000 </r>
       <r>    3.4142    1.0000 </r>
       <r>    3.4589    1.0000 </r>
       <r>    3.4596    1.0000 </r>
       <r>    3.4713    1.0000 </r>
       <r>    3.4715    1.0000 </r>
       <r>    3.4987    1.0000 </r>
       <r>    3.5001    1.0000 </r>
       <r>    3.5002    1.0000 </r>
       <r>    3.5003    1.0000 </r>
       <r>    3.6451    1.0000 </r>
       <r>    3.6461    1.0000 </r>
       <r>    3.7355    1.0000 </r>
       <r>    3.7364    1.0000 </r>
       <r>    3.7365    1.0000 </r>
       <r>    3.7369    1.0000 </r>
       <r>    4.0465    1.0000 </r>
       <r>    4.0473    1.0000 </r>
       <r>    4.0568    1.0000 </r>
       <r>    4.0572    1.0000 </r>
       <r>    4.0575    1.0000 </r>
       <r>    4.0581    1.0000 </r>
       <r>    4.2409    1.0000 </r>
       <r>    4.3034    1.0000 </r>
       <r>    4.3044    1.0000 </r>
       <r>    4.3326    1.0000 </r>
       <r>    4.3335    1.0000 </r>
       <r>    4.4235    1.0000 </r>
       <r>    4.4244    1.0000 </r>
       <r>    4.4905    1.0000 </r>
       <r>    4.9704    1.0000 </r>
       <r>    6.0214    0.0000 </r>
       <r>    6.0218    0.0000 </r>
       <r>    6.1073    0.0000 </r>
       <r>    6.3300    0.0000 </r>
       <r>    6.3306    0.0000 </r>
       <r>    6.4850    0.0000 </r>
       <r>    6.4857    0.0000 </r>
       <r>    6.6371    0.0000 </r>
       <r>    6.6373    0.0000 </r>
       <r>    6.6451    0.0000 </r>
       <r>    6.6455    0.0000 </r>
       <r>    6.6458    0.0000 </r>
       <r>    6.6464    0.0000 </r>
       <r>    6.6567    0.0000 </r>
       <r>    6.6570    0.0000 </r>
       <r>    6.6641    0.0000 </r>
       <r>    6.8689    0.0000 </r>
       <r>    6.8696    0.0000 </r>
       <r>    6.9487    0.0000 </r>
       <r>    6.9491    0.0000 </r>
       <r>    6.9982    0.0000 </r>
       <r>    6.9987    0.0000 </r>
       <r>    7.0438    0.0000 </r>
       <r>    7.0444    0.0000 </r>
       <r>    7.0604    0.0000 </r>
       <r>    7.0608    0.0000 </r>
       <r>    7.1793    0.0000 </r>
       <r>    7.1800    0.0000 </r>
       <r>    7.1802    0.0000 </r>
       <r>    7.1805    0.0000 </r>
       <r>    7.1827    0.0000 </r>
       <r>    7.1829    0.0000 </r>
       <r>    7.2072    0.0000 </r>
       <r>    7.2077    0.0000 </r>
       <r>    7.2078    0.0000 </r>
       <r>    7.2083    0.0000 </r>
       <r>    7.2313    0.0000 </r>
       <r>    7.2315    0.0000 </r>
       <r>    7.2317    0.0000 </r>
       <r>    7.2320    0.0000 </r>
       <r>    7.2321    0.0000 </r>
       <r>    7.2998    0.0000 </r>
       <r>    7.3001    0.0000 </r>
       <r>    7.3665    0.0000 </r>
       <r>    7.3672    0.0000 </r>
       <r>    7.3673    0.0000 </r>
       <r>    7.3675    0.0000 </r>
       <r>    7.3845    0.0000 </r>
       <r>    7.3852    0.0000 </r>
       <r>    7.5162    0.0000 </r>
       <r>    7.5168    0.0000 </r>
       <r>    7.5172    0.0000 </r>
       <r>    7.5174    0.0000 </r>
       <r>    7.5414    0.0000 </r>
       <r>    7.5479    0.0000 </r>
       <r>    7.5483    0.0000 </r>
       <r>    7.5484    0.0000 </r>
       <r>    7.5490    0.0000 </r>
       <r>    7.6241    0.0000 </r>
       <r>    7.6243    0.0000 </r>
       <r>    7.6825    0.0000 </r>
       <r>    7.7017    0.0000 </r>
       <r>    7.7021    0.0000 </r>
       <r>    7.7288    0.0000 </r>
       <r>    7.7296    0.0000 </r>
       <r>    7.7820    0.0000 </r>
       <r>    7.7823    0.0000 </r>
       <r>    7.7826    0.0000 </r>
       <r>    7.7831    0.0000 </r>
       <r>    7.8826    0.0000 </r>
       <r>    7.8986    0.0000 </r>
       <r>    7.8992    0.0000 </r>
       <r>    7.9486    0.0000 </r>
       <r>    7.9488    0.0000 </r>
       <r>    8.0220    0.0000 </r>
       <r>    8.1605    0.0000 </r>
       <r>    8.1607    0.0000 </r>
       <r>    8.1607    0.0000 </r>
       <r>    8.1615    0.0000 </r>
       <r>    8.2460    0.0000 </r>
       <r>    8.2463    0.0000 </r>
       <r>    8.2517    0.0000 </r>
       <r>    8.2527    0.0000 </r>
       <r>    8.2527    0.0000 </r>
       <r>    8.2530    0.0000 </r>
       <r>    8.3599    0.0000 </r>
       <r>    8.3602    0.0000 </r>
       <r>    8.4034    0.0000 </r>
       <r>    8.4041    0.0000 </r>
       <r>    8.4264    0.0000 </r>
       <r>    8.4270    0.0000 </r>
       <r>    8.4276    0.0000 </r>
       <r>    8.4278    0.0000 </r>
       <r>    8.4313    0.0000 </r>
       <r>    8.4319    0.0000 </r>
       <r>    8.4321    0.0000 </r>
       <r>    8.4326    0.0000 </r>
       <r>    8.4689    0.0000 </r>
       <r>    8.4693    0.0000 </r>
       <r>    8.6107    0.0000 </r>
       <r>    8.6112    0.0000 </r>
       <r>    8.6124    0.0000 </r>
       <r>    8.6168    0.0000 </r>
       <r>    8.6171    0.0000 </r>
       <r>    8.6173    0.0000 </r>
       <r>    8.6176    0.0000 </r>
       <r>    8.6190    0.0000 </r>
       <r>    8.6197    0.0000 </r>
       <r>    8.6736    0.0000 </r>
       <r>    8.6739    0.0000 </r>
       <r>    8.7508    0.0000 </r>
       <r>    8.7515    0.0000 </r>
       <r>    8.7776    0.0000 </r>
       <r>    8.7783    0.0000 </r>
       <r>    8.7995    0.0000 </r>
       <r>    8.7997    0.0000 </r>
       <r>    8.8001    0.0000 </r>
       <r>    8.8005    0.0000 </r>
       <r>    8.8131    0.0000 </r>
       <r>    8.8136    0.0000 </r>
       <r>    8.8140    0.0000 </r>
       <r>    8.8142    0.0000 </r>
       <r>    8.8286    0.0000 </r>
       <r>    8.8290    0.0000 </r>
       <r>    8.8737    0.0000 </r>
       <r>    8.9970    0.0000 </r>
       <r>    8.9979    0.0000 </r>
       <r>    9.1194    0.0000 </r>
      </set>
      <set comment="kpoint 8">
       <r>  -19.2231    1.0000 </r>
       <r>  -19.2230    1.0000 </r>
       <r>  -19.2230    1.0000 </r>
       <r>  -19.2228    1.0000 </r>
       <r>  -19.2225    1.0000 </r>
       <r>  -19.2223    1.0000 </r>
       <r>  -19.2222    1.0000 </r>
       <r>  -19.2219    1.0000 </r>
       <r>  -19.2219    1.0000 </r>
       <r>  -19.2216    1.0000 </r>
       <r>  -19.2216    1.0000 </r>
       <r>  -19.2207    1.0000 </r>
       <r>  -19.2206    1.0000 </r>
       <r>  -19.2205    1.0000 </r>
       <r>  -19.2203    1.0000 </r>
       <r>  -19.2203    1.0000 </r>
       <r>  -19.2202    1.0000 </r>
       <r>  -19.2201    1.0000 </r>
       <r>  -19.2201    1.0000 </r>
       <r>  -19.2200    1.0000 </r>
       <r>  -19.2199    1.0000 </r>
       <r>  -19.2198    1.0000 </r>
       <r>  -19.2197    1.0000 </r>
       <r>  -19.2194    1.0000 </r>
       <r>  -19.2194    1.0000 </r>
       <r>  -19.2192    1.0000 </r>
       <r>  -19.2191    1.0000 </r>
       <r>  -19.2190    1.0000 </r>
       <r>  -19.2189    1.0000 </r>
       <r>  -19.2189    1.0000 </r>
       <r>  -19.2189    1.0000 </r>
       <r>  -19.2188    1.0000 </r>
       <r>  -19.2188    1.0000 </r>
       <r>  -19.2188    1.0000 </r>
       <r>  -19.2187    1.0000 </r>
       <r>  -19.2187    1.0000 </r>
       <r>  -19.2187    1.0000 </r>
       <r>  -19.2187    1.0000 </r>
       <r>  -19.2187    1.0000 </r>
       <r>  -19.2186    1.0000 </r>
       <r>  -19.2186    1.0000 </r>
       <r>  -19.2185    1.0000 </r>
       <r>  -19.2184    1.0000 </r>
       <r>  -19.2184    1.0000 </r>
       <r>  -19.2184    1.0000 </r>
       <r>  -19.2183    1.0000 </r>
       <r>  -19.2183    1.0000 </r>
       <r>  -19.2182    1.0000 </r>
       <r>  -19.2181    1.0000 </r>
       <r>  -19.2181    1.0000 </r>
       <r>  -19.2180    1.0000 </r>
       <r>  -19.2180    1.0000 </r>
       <r>  -19.2180    1.0000 </r>
       <r>  -19.2180    1.0000 </r>
       <r>  -19.2180    1.0000 </r>
       <r>  -19.2180    1.0000 </r>
       <r>  -19.2179    1.0000 </r>
       <r>  -19.2179    1.0000 </r>
       <r>  -19.2179    1.0000 </r>
       <r>  -19.2179    1.0000 </r>
       <r>  -19.2178    1.0000 </r>
       <r>  -19.2177    1.0000 </r>
       <r>  -19.2176    1.0000 </r>
       <r>  -19.2174    1.0000 </r>
       <r>  -19.2170    1.0000 </r>
       <r>  -19.2167    1.0000 </r>
       <r>  -19.2165    1.0000 </r>
       <r>  -19.2164    1.0000 </r>
       <r>  -19.2162    1.0000 </r>
       <r>  -19.2162    1.0000 </r>
       <r>  -19.2155    1.0000 </r>
       <r>  -19.2153    1.0000 </r>
       <r>  -19.2152    1.0000 </r>
       <r>  -19.2151    1.0000 </r>
       <r>  -19.2150    1.0000 </r>
       <r>  -19.2146    1.0000 </r>
       <r>  -19.2146    1.0000 </r>
       <r>  -19.2145    1.0000 </r>
       <r>  -19.2144    1.0000 </r>
       <r>  -19.2143    1.0000 </r>
       <r>  -19.2142    1.0000 </r>
       <r>  -19.2140    1.0000 </r>
       <r>  -19.2140    1.0000 </r>
       <r>  -19.2139    1.0000 </r>
       <r>  -19.2139    1.0000 </r>
       <r>  -19.2138    1.0000 </r>
       <r>  -19.2138    1.0000 </r>
       <r>  -19.2138    1.0000 </r>
       <r>  -19.2137    1.0000 </r>
       <r>  -19.2136    1.0000 </r>
       <r>  -19.2136    1.0000 </r>
       <r>  -19.2136    1.0000 </r>
       <r>  -19.2136    1.0000 </r>
       <r>  -19.2135    1.0000 </r>
       <r>  -19.2134    1.0000 </r>
       <r>  -19.2134    1.0000 </r>
       <r>  -19.2133    1.0000 </r>
       <r>  -19.2132    1.0000 </r>
       <r>  -19.2132    1.0000 </r>
       <r>  -19.2132    1.0000 </r>
       <r>  -19.2132    1.0000 </r>
       <r>  -19.2131    1.0000 </r>
       <r>  -19.2131    1.0000 </r>
       <r>  -19.2131    1.0000 </r>
       <r>  -19.2131    1.0000 </r>
       <r>  -19.2130    1.0000 </r>
       <r>  -19.2130    1.0000 </r>
       <r>  -19.2130    1.0000 </r>
       <r>  -19.2129    1.0000 </r>
       <r>  -19.2129    1.0000 </r>
       <r>  -19.2129    1.0000 </r>
       <r>  -19.2129    1.0000 </r>
       <r>  -19.2129    1.0000 </r>
       <r>  -19.2128    1.0000 </r>
       <r>  -19.2128    1.0000 </r>
       <r>  -19.2128    1.0000 </r>
       <r>  -19.2127    1.0000 </r>
       <r>  -19.2127    1.0000 </r>
       <r>  -19.2126    1.0000 </r>
       <r>  -19.2126    1.0000 </r>
       <r>  -19.2125    1.0000 </r>
       <r>  -19.2124    1.0000 </r>
       <r>  -19.2124    1.0000 </r>
       <r>  -19.2124    1.0000 </r>
       <r>  -19.2123    1.0000 </r>
       <r>  -19.2123    1.0000 </r>
       <r>  -19.2122    1.0000 </r>
       <r>  -19.2122    1.0000 </r>
       <r>  -19.2122    1.0000 </r>
       <r>  -19.2121    1.0000 </r>
       <r>  -19.2121    1.0000 </r>
       <r>  -19.2121    1.0000 </r>
       <r>  -19.2120    1.0000 </r>
       <r>  -19.2120    1.0000 </r>
       <r>  -19.2119    1.0000 </r>
       <r>  -19.2119    1.0000 </r>
       <r>  -19.2118    1.0000 </r>
       <r>  -19.2118    1.0000 </r>
       <r>  -19.2117    1.0000 </r>
       <r>  -19.2116    1.0000 </r>
       <r>  -19.2115    1.0000 </r>
       <r>  -19.2115    1.0000 </r>
       <r>  -19.2113    1.0000 </r>
       <r>  -19.2112    1.0000 </r>
       <r>  -19.2112    1.0000 </r>
       <r>  -19.2112    1.0000 </r>
       <r>  -19.2111    1.0000 </r>
       <r>  -19.2108    1.0000 </r>
       <r>  -19.2108    1.0000 </r>
       <r>  -19.2108    1.0000 </r>
       <r>  -19.2108    1.0000 </r>
       <r>  -19.2107    1.0000 </r>
       <r>  -19.2107    1.0000 </r>
       <r>  -19.2104    1.0000 </r>
       <r>  -19.2102    1.0000 </r>
       <r>  -19.2102    1.0000 </r>
       <r>  -19.2100    1.0000 </r>
       <r>  -19.2100    1.0000 </r>
       <r>  -19.2100    1.0000 </r>
       <r>  -19.2098    1.0000 </r>
       <r>  -19.2095    1.0000 </r>
       <r>  -19.2095    1.0000 </r>
       <r>  -19.2095    1.0000 </r>
       <r>  -19.2095    1.0000 </r>
       <r>  -19.2093    1.0000 </r>
       <r>  -19.2093    1.0000 </r>
       <r>  -19.2092    1.0000 </r>
       <r>  -19.2092    1.0000 </r>
       <r>  -19.2091    1.0000 </r>
       <r>  -19.2091    1.0000 </r>
       <r>  -19.2091    1.0000 </r>
       <r>  -19.2090    1.0000 </r>
       <r>  -19.2090    1.0000 </r>
       <r>  -19.2089    1.0000 </r>
       <r>  -19.2089    1.0000 </r>
       <r>  -19.2088    1.0000 </r>
       <r>  -19.2087    1.0000 </r>
       <r>  -19.2087    1.0000 </r>
       <r>  -19.2085    1.0000 </r>
       <r>  -19.2085    1.0000 </r>
       <r>  -19.2084    1.0000 </r>
       <r>  -19.2081    1.0000 </r>
       <r>  -19.2081    1.0000 </r>
       <r>  -19.2080    1.0000 </r>
       <r>  -19.2080    1.0000 </r>
       <r>  -19.2079    1.0000 </r>
       <r>  -19.2077    1.0000 </r>
       <r>  -19.2076    1.0000 </r>
       <r>  -19.2076    1.0000 </r>
       <r>  -19.2074    1.0000 </r>
       <r>  -19.2073    1.0000 </r>
       <r>  -19.2071    1.0000 </r>
       <r>  -19.1965    1.0000 </r>
       <r>  -19.1965    1.0000 </r>
       <r>  -19.1956    1.0000 </r>
       <r>  -19.1955    1.0000 </r>
       <r>  -19.1955    1.0000 </r>
       <r>  -19.1955    1.0000 </r>
       <r>  -19.1954    1.0000 </r>
       <r>  -19.1953    1.0000 </r>
       <r>  -19.1952    1.0000 </r>
       <r>  -19.1949    1.0000 </r>
       <r>  -19.1949    1.0000 </r>
       <r>  -19.1947    1.0000 </r>
       <r>  -19.1946    1.0000 </r>
       <r>  -19.1945    1.0000 </r>
       <r>  -19.1944    1.0000 </r>
       <r>  -19.1943    1.0000 </r>
       <r>  -19.1942    1.0000 </r>
       <r>  -19.1940    1.0000 </r>
       <r>  -19.1940    1.0000 </r>
       <r>  -19.1939    1.0000 </r>
       <r>  -19.1938    1.0000 </r>
       <r>  -19.1938    1.0000 </r>
       <r>  -19.1937    1.0000 </r>
       <r>  -19.1936    1.0000 </r>
       <r>  -19.1936    1.0000 </r>
       <r>  -19.1936    1.0000 </r>
       <r>  -19.1935    1.0000 </r>
       <r>  -19.1935    1.0000 </r>
       <r>  -19.1935    1.0000 </r>
       <r>  -19.1934    1.0000 </r>
       <r>  -19.1933    1.0000 </r>
       <r>  -19.1933    1.0000 </r>
       <r>  -19.1932    1.0000 </r>
       <r>  -19.1932    1.0000 </r>
       <r>  -19.1932    1.0000 </r>
       <r>  -19.1931    1.0000 </r>
       <r>  -19.1931    1.0000 </r>
       <r>  -19.1930    1.0000 </r>
       <r>  -19.1930    1.0000 </r>
       <r>  -19.1929    1.0000 </r>
       <r>  -19.1929    1.0000 </r>
       <r>  -19.1929    1.0000 </r>
       <r>  -19.1928    1.0000 </r>
       <r>  -19.1927    1.0000 </r>
       <r>  -19.1927    1.0000 </r>
       <r>  -19.1926    1.0000 </r>
       <r>  -19.1926    1.0000 </r>
       <r>  -19.1925    1.0000 </r>
       <r>  -19.1925    1.0000 </r>
       <r>  -19.1924    1.0000 </r>
       <r>  -19.1924    1.0000 </r>
       <r>  -19.1924    1.0000 </r>
       <r>  -19.1923    1.0000 </r>
       <r>  -19.1922    1.0000 </r>
       <r>  -19.1921    1.0000 </r>
       <r>  -19.1921    1.0000 </r>
       <r>  -19.1921    1.0000 </r>
       <r>  -19.1921    1.0000 </r>
       <r>  -19.1920    1.0000 </r>
       <r>  -19.1920    1.0000 </r>
       <r>  -19.1920    1.0000 </r>
       <r>  -19.1919    1.0000 </r>
       <r>  -19.1919    1.0000 </r>
       <r>  -19.1918    1.0000 </r>
       <r>  -19.1917    1.0000 </r>
       <r>  -19.1917    1.0000 </r>
       <r>  -19.1916    1.0000 </r>
       <r>  -19.1915    1.0000 </r>
       <r>  -19.1915    1.0000 </r>
       <r>  -19.1913    1.0000 </r>
       <r>  -19.1913    1.0000 </r>
       <r>  -19.1913    1.0000 </r>
       <r>  -19.1912    1.0000 </r>
       <r>  -19.1911    1.0000 </r>
       <r>  -19.1911    1.0000 </r>
       <r>  -19.1911    1.0000 </r>
       <r>  -19.1910    1.0000 </r>
       <r>  -19.1910    1.0000 </r>
       <r>  -19.1910    1.0000 </r>
       <r>  -19.1909    1.0000 </r>
       <r>  -19.1909    1.0000 </r>
       <r>  -19.1909    1.0000 </r>
       <r>  -19.1909    1.0000 </r>
       <r>  -19.1908    1.0000 </r>
       <r>  -19.1908    1.0000 </r>
       <r>  -19.1908    1.0000 </r>
       <r>  -19.1908    1.0000 </r>
       <r>  -19.1907    1.0000 </r>
       <r>  -19.1907    1.0000 </r>
       <r>  -19.1907    1.0000 </r>
       <r>  -19.1907    1.0000 </r>
       <r>  -19.1906    1.0000 </r>
       <r>  -19.1906    1.0000 </r>
       <r>  -19.1906    1.0000 </r>
       <r>  -19.1905    1.0000 </r>
       <r>  -19.1905    1.0000 </r>
       <r>  -19.1905    1.0000 </r>
       <r>  -19.1904    1.0000 </r>
       <r>  -19.1904    1.0000 </r>
       <r>  -19.1903    1.0000 </r>
       <r>  -19.1903    1.0000 </r>
       <r>  -19.1902    1.0000 </r>
       <r>  -19.1902    1.0000 </r>
       <r>  -19.1902    1.0000 </r>
       <r>  -19.1902    1.0000 </r>
       <r>  -19.1901    1.0000 </r>
       <r>  -19.1900    1.0000 </r>
       <r>  -19.1900    1.0000 </r>
       <r>  -19.1899    1.0000 </r>
       <r>  -19.1898    1.0000 </r>
       <r>  -19.1898    1.0000 </r>
       <r>  -19.1897    1.0000 </r>
       <r>  -19.1896    1.0000 </r>
       <r>  -19.1896    1.0000 </r>
       <r>  -19.1895    1.0000 </r>
       <r>  -19.1894    1.0000 </r>
       <r>  -19.1894    1.0000 </r>
       <r>  -19.1891    1.0000 </r>
       <r>  -19.1891    1.0000 </r>
       <r>  -19.1889    1.0000 </r>
       <r>  -19.1887    1.0000 </r>
       <r>  -19.1887    1.0000 </r>
       <r>  -19.1886    1.0000 </r>
       <r>  -19.1886    1.0000 </r>
       <r>  -19.1886    1.0000 </r>
       <r>  -19.1885    1.0000 </r>
       <r>  -19.1875    1.0000 </r>
       <r>  -19.1874    1.0000 </r>
       <r>   -6.8523    1.0000 </r>
       <r>   -6.7677    1.0000 </r>
       <r>   -6.7677    1.0000 </r>
       <r>   -6.5173    1.0000 </r>
       <r>   -6.5166    1.0000 </r>
       <r>   -6.1940    1.0000 </r>
       <r>   -6.1128    1.0000 </r>
       <r>   -6.1120    1.0000 </r>
       <r>   -6.1118    1.0000 </r>
       <r>   -6.1111    1.0000 </r>
       <r>   -5.8689    1.0000 </r>
       <r>   -5.8689    1.0000 </r>
       <r>   -5.5857    1.0000 </r>
       <r>   -5.5851    1.0000 </r>
       <r>   -5.5849    1.0000 </r>
       <r>   -5.5844    1.0000 </r>
       <r>   -5.5420    1.0000 </r>
       <r>   -5.5419    1.0000 </r>
       <r>   -5.4769    1.0000 </r>
       <r>   -5.4761    1.0000 </r>
       <r>   -5.4759    1.0000 </r>
       <r>   -5.4751    1.0000 </r>
       <r>   -5.3535    1.0000 </r>
       <r>   -5.3535    1.0000 </r>
       <r>   -5.2158    1.0000 </r>
       <r>   -5.2150    1.0000 </r>
       <r>   -5.0346    1.0000 </r>
       <r>   -5.0340    1.0000 </r>
       <r>   -5.0339    1.0000 </r>
       <r>   -5.0333    1.0000 </r>
       <r>   -4.9626    1.0000 </r>
       <r>   -4.9619    1.0000 </r>
       <r>   -4.8133    1.0000 </r>
       <r>   -4.8133    1.0000 </r>
       <r>   -4.7512    1.0000 </r>
       <r>   -4.7507    1.0000 </r>
       <r>   -4.7168    1.0000 </r>
       <r>   -4.7168    1.0000 </r>
       <r>   -4.6090    1.0000 </r>
       <r>   -4.6082    1.0000 </r>
       <r>   -4.6082    1.0000 </r>
       <r>   -4.6074    1.0000 </r>
       <r>   -4.4143    1.0000 </r>
       <r>   -4.4137    1.0000 </r>
       <r>   -4.4137    1.0000 </r>
       <r>   -4.4130    1.0000 </r>
       <r>   -4.3016    1.0000 </r>
       <r>   -4.3008    1.0000 </r>
       <r>   -4.1309    1.0000 </r>
       <r>   -4.1300    1.0000 </r>
       <r>   -4.1240    1.0000 </r>
       <r>   -4.1220    1.0000 </r>
       <r>   -4.1212    1.0000 </r>
       <r>   -4.1211    1.0000 </r>
       <r>   -4.1204    1.0000 </r>
       <r>   -4.1187    1.0000 </r>
       <r>   -4.1180    1.0000 </r>
       <r>   -3.7912    1.0000 </r>
       <r>   -3.7907    1.0000 </r>
       <r>   -3.7906    1.0000 </r>
       <r>   -3.7901    1.0000 </r>
       <r>   -3.7035    1.0000 </r>
       <r>   -3.7033    1.0000 </r>
       <r>   -3.5801    1.0000 </r>
       <r>   -2.6291    1.0000 </r>
       <r>   -2.4331    1.0000 </r>
       <r>   -2.4324    1.0000 </r>
       <r>   -2.3761    1.0000 </r>
       <r>   -2.3754    1.0000 </r>
       <r>   -2.3753    1.0000 </r>
       <r>   -2.3746    1.0000 </r>
       <r>   -2.0637    1.0000 </r>
       <r>   -2.0627    1.0000 </r>
       <r>   -2.0433    1.0000 </r>
       <r>   -2.0430    1.0000 </r>
       <r>   -2.0428    1.0000 </r>
       <r>   -2.0424    1.0000 </r>
       <r>   -2.0220    1.0000 </r>
       <r>   -1.9568    1.0000 </r>
       <r>   -1.9566    1.0000 </r>
       <r>   -1.9301    1.0000 </r>
       <r>   -1.9289    1.0000 </r>
       <r>   -1.8638    1.0000 </r>
       <r>   -1.8638    1.0000 </r>
       <r>   -1.8301    1.0000 </r>
       <r>   -1.8291    1.0000 </r>
       <r>   -1.7272    1.0000 </r>
       <r>   -1.7269    1.0000 </r>
       <r>   -1.7269    1.0000 </r>
       <r>   -1.7267    1.0000 </r>
       <r>   -1.7043    1.0000 </r>
       <r>   -1.7034    1.0000 </r>
       <r>   -1.7031    1.0000 </r>
       <r>   -1.7022    1.0000 </r>
       <r>   -1.4929    1.0000 </r>
       <r>   -1.4919    1.0000 </r>
       <r>   -1.4918    1.0000 </r>
       <r>   -1.4907    1.0000 </r>
       <r>   -1.2164    1.0000 </r>
       <r>   -1.2164    1.0000 </r>
       <r>   -1.1753    1.0000 </r>
       <r>   -1.1753    1.0000 </r>
       <r>   -0.9995    1.0000 </r>
       <r>   -0.9983    1.0000 </r>
       <r>   -0.8619    1.0000 </r>
       <r>   -0.8619    1.0000 </r>
       <r>   -0.5876    1.0000 </r>
       <r>   -0.5873    1.0000 </r>
       <r>   -0.4900    1.0000 </r>
       <r>   -0.4891    1.0000 </r>
       <r>   -0.4890    1.0000 </r>
       <r>   -0.4881    1.0000 </r>
       <r>   -0.3133    1.0000 </r>
       <r>   -0.3128    1.0000 </r>
       <r>   -0.3128    1.0000 </r>
       <r>   -0.3124    1.0000 </r>
       <r>    0.2647    1.0000 </r>
       <r>    0.2647    1.0000 </r>
       <r>    0.7355    1.0000 </r>
       <r>    0.7362    1.0000 </r>
       <r>    0.7363    1.0000 </r>
       <r>    0.7370    1.0000 </r>
       <r>    0.8140    1.0000 </r>
       <r>    0.9578    1.0000 </r>
       <r>    0.9583    1.0000 </r>
       <r>    0.9586    1.0000 </r>
       <r>    0.9587    1.0000 </r>
       <r>    0.9592    1.0000 </r>
       <r>    0.9760    1.0000 </r>
       <r>    0.9763    1.0000 </r>
       <r>    1.1452    1.0000 </r>
       <r>    1.1453    1.0000 </r>
       <r>    1.2445    1.0000 </r>
       <r>    1.2447    1.0000 </r>
       <r>    1.2450    1.0000 </r>
       <r>    1.2451    1.0000 </r>
       <r>    1.3427    1.0000 </r>
       <r>    1.4034    1.0000 </r>
       <r>    1.4040    1.0000 </r>
       <r>    1.4281    1.0000 </r>
       <r>    1.4284    1.0000 </r>
       <r>    1.4286    1.0000 </r>
       <r>    1.4289    1.0000 </r>
       <r>    1.4968    1.0000 </r>
       <r>    1.4970    1.0000 </r>
       <r>    1.4973    1.0000 </r>
       <r>    1.4975    1.0000 </r>
       <r>    1.5859    1.0000 </r>
       <r>    1.5862    1.0000 </r>
       <r>    1.9363    1.0000 </r>
       <r>    1.9369    1.0000 </r>
       <r>    1.9910    1.0000 </r>
       <r>    1.9911    1.0000 </r>
       <r>    2.0111    1.0000 </r>
       <r>    2.0113    1.0000 </r>
       <r>    2.0300    1.0000 </r>
       <r>    2.0301    1.0000 </r>
       <r>    2.1431    1.0000 </r>
       <r>    2.1435    1.0000 </r>
       <r>    2.1437    1.0000 </r>
       <r>    2.1441    1.0000 </r>
       <r>    2.1878    1.0000 </r>
       <r>    2.1883    1.0000 </r>
       <r>    2.2073    1.0000 </r>
       <r>    2.2073    1.0000 </r>
       <r>    2.2273    1.0000 </r>
       <r>    2.2275    1.0000 </r>
       <r>    2.2276    1.0000 </r>
       <r>    2.2278    1.0000 </r>
       <r>    2.2711    1.0000 </r>
       <r>    2.2717    1.0000 </r>
       <r>    2.3337    1.0000 </r>
       <r>    2.3342    1.0000 </r>
       <r>    2.3756    1.0000 </r>
       <r>    2.3762    1.0000 </r>
       <r>    2.3877    1.0000 </r>
       <r>    2.3878    1.0000 </r>
       <r>    2.4121    1.0000 </r>
       <r>    2.4347    1.0000 </r>
       <r>    2.4348    1.0000 </r>
       <r>    2.4355    1.0000 </r>
       <r>    2.4356    1.0000 </r>
       <r>    2.4956    1.0000 </r>
       <r>    2.4960    1.0000 </r>
       <r>    2.4962    1.0000 </r>
       <r>    2.4966    1.0000 </r>
       <r>    2.5167    1.0000 </r>
       <r>    2.5167    1.0000 </r>
       <r>    2.5928    1.0000 </r>
       <r>    2.5930    1.0000 </r>
       <r>    2.5935    1.0000 </r>
       <r>    2.5937    1.0000 </r>
       <r>    2.6745    1.0000 </r>
       <r>    2.6749    1.0000 </r>
       <r>    2.6752    1.0000 </r>
       <r>    2.6755    1.0000 </r>
       <r>    2.6850    1.0000 </r>
       <r>    2.6851    1.0000 </r>
       <r>    2.7079    1.0000 </r>
       <r>    2.8032    1.0000 </r>
       <r>    2.8032    1.0000 </r>
       <r>    2.8092    1.0000 </r>
       <r>    2.8097    1.0000 </r>
       <r>    2.9067    1.0000 </r>
       <r>    2.9069    1.0000 </r>
       <r>    2.9069    1.0000 </r>
       <r>    2.9071    1.0000 </r>
       <r>    2.9526    1.0000 </r>
       <r>    3.0163    1.0000 </r>
       <r>    3.0163    1.0000 </r>
       <r>    3.1078    1.0000 </r>
       <r>    3.1082    1.0000 </r>
       <r>    3.1083    1.0000 </r>
       <r>    3.1087    1.0000 </r>
       <r>    3.1565    1.0000 </r>
       <r>    3.1581    1.0000 </r>
       <r>    3.1581    1.0000 </r>
       <r>    3.1587    1.0000 </r>
       <r>    3.1591    1.0000 </r>
       <r>    3.1594    1.0000 </r>
       <r>    3.1597    1.0000 </r>
       <r>    3.3339    1.0000 </r>
       <r>    3.3339    1.0000 </r>
       <r>    3.3941    1.0000 </r>
       <r>    3.3942    1.0000 </r>
       <r>    3.4134    1.0000 </r>
       <r>    3.4141    1.0000 </r>
       <r>    3.4589    1.0000 </r>
       <r>    3.4590    1.0000 </r>
       <r>    3.4714    1.0000 </r>
       <r>    3.4715    1.0000 </r>
       <r>    3.4997    1.0000 </r>
       <r>    3.5000    1.0000 </r>
       <r>    3.5001    1.0000 </r>
       <r>    3.5005    1.0000 </r>
       <r>    3.6453    1.0000 </r>
       <r>    3.6453    1.0000 </r>
       <r>    3.7359    1.0000 </r>
       <r>    3.7363    1.0000 </r>
       <r>    3.7364    1.0000 </r>
       <r>    3.7369    1.0000 </r>
       <r>    4.0465    1.0000 </r>
       <r>    4.0466    1.0000 </r>
       <r>    4.0564    1.0000 </r>
       <r>    4.0571    1.0000 </r>
       <r>    4.0575    1.0000 </r>
       <r>    4.0583    1.0000 </r>
       <r>    4.2409    1.0000 </r>
       <r>    4.3036    1.0000 </r>
       <r>    4.3036    1.0000 </r>
       <r>    4.3334    1.0000 </r>
       <r>    4.3335    1.0000 </r>
       <r>    4.4242    1.0000 </r>
       <r>    4.4242    1.0000 </r>
       <r>    4.4901    1.0000 </r>
       <r>    4.9700    1.0000 </r>
       <r>    6.0215    0.0000 </r>
       <r>    6.0215    0.0000 </r>
       <r>    6.1070    0.0000 </r>
       <r>    6.3299    0.0000 </r>
       <r>    6.3306    0.0000 </r>
       <r>    6.4854    0.0000 </r>
       <r>    6.4855    0.0000 </r>
       <r>    6.6371    0.0000 </r>
       <r>    6.6371    0.0000 </r>
       <r>    6.6452    0.0000 </r>
       <r>    6.6455    0.0000 </r>
       <r>    6.6459    0.0000 </r>
       <r>    6.6462    0.0000 </r>
       <r>    6.6568    0.0000 </r>
       <r>    6.6568    0.0000 </r>
       <r>    6.6638    0.0000 </r>
       <r>    6.8693    0.0000 </r>
       <r>    6.8697    0.0000 </r>
       <r>    6.9488    0.0000 </r>
       <r>    6.9489    0.0000 </r>
       <r>    6.9983    0.0000 </r>
       <r>    6.9983    0.0000 </r>
       <r>    7.0439    0.0000 </r>
       <r>    7.0439    0.0000 </r>
       <r>    7.0607    0.0000 </r>
       <r>    7.0607    0.0000 </r>
       <r>    7.1794    0.0000 </r>
       <r>    7.1798    0.0000 </r>
       <r>    7.1801    0.0000 </r>
       <r>    7.1805    0.0000 </r>
       <r>    7.1828    0.0000 </r>
       <r>    7.1831    0.0000 </r>
       <r>    7.2073    0.0000 </r>
       <r>    7.2077    0.0000 </r>
       <r>    7.2079    0.0000 </r>
       <r>    7.2083    0.0000 </r>
       <r>    7.2312    0.0000 </r>
       <r>    7.2315    0.0000 </r>
       <r>    7.2318    0.0000 </r>
       <r>    7.2320    0.0000 </r>
       <r>    7.2322    0.0000 </r>
       <r>    7.2998    0.0000 </r>
       <r>    7.2998    0.0000 </r>
       <r>    7.3669    0.0000 </r>
       <r>    7.3670    0.0000 </r>
       <r>    7.3674    0.0000 </r>
       <r>    7.3675    0.0000 </r>
       <r>    7.3843    0.0000 </r>
       <r>    7.3852    0.0000 </r>
       <r>    7.5167    0.0000 </r>
       <r>    7.5169    0.0000 </r>
       <r>    7.5173    0.0000 </r>
       <r>    7.5176    0.0000 </r>
       <r>    7.5412    0.0000 </r>
       <r>    7.5477    0.0000 </r>
       <r>    7.5482    0.0000 </r>
       <r>    7.5485    0.0000 </r>
       <r>    7.5488    0.0000 </r>
       <r>    7.6241    0.0000 </r>
       <r>    7.6244    0.0000 </r>
       <r>    7.6827    0.0000 </r>
       <r>    7.7018    0.0000 </r>
       <r>    7.7018    0.0000 </r>
       <r>    7.7292    0.0000 </r>
       <r>    7.7293    0.0000 </r>
       <r>    7.7820    0.0000 </r>
       <r>    7.7822    0.0000 </r>
       <r>    7.7827    0.0000 </r>
       <r>    7.7830    0.0000 </r>
       <r>    7.8829    0.0000 </r>
       <r>    7.8983    0.0000 </r>
       <r>    7.8993    0.0000 </r>
       <r>    7.9487    0.0000 </r>
       <r>    7.9489    0.0000 </r>
       <r>    8.0218    0.0000 </r>
       <r>    8.1600    0.0000 </r>
       <r>    8.1606    0.0000 </r>
       <r>    8.1606    0.0000 </r>
       <r>    8.1612    0.0000 </r>
       <r>    8.2460    0.0000 </r>
       <r>    8.2464    0.0000 </r>
       <r>    8.2523    0.0000 </r>
       <r>    8.2526    0.0000 </r>
       <r>    8.2528    0.0000 </r>
       <r>    8.2531    0.0000 </r>
       <r>    8.3602    0.0000 </r>
       <r>    8.3603    0.0000 </r>
       <r>    8.4030    0.0000 </r>
       <r>    8.4040    0.0000 </r>
       <r>    8.4270    0.0000 </r>
       <r>    8.4274    0.0000 </r>
       <r>    8.4276    0.0000 </r>
       <r>    8.4281    0.0000 </r>
       <r>    8.4317    0.0000 </r>
       <r>    8.4318    0.0000 </r>
       <r>    8.4324    0.0000 </r>
       <r>    8.4325    0.0000 </r>
       <r>    8.4687    0.0000 </r>
       <r>    8.4687    0.0000 </r>
       <r>    8.6108    0.0000 </r>
       <r>    8.6110    0.0000 </r>
       <r>    8.6128    0.0000 </r>
       <r>    8.6169    0.0000 </r>
       <r>    8.6172    0.0000 </r>
       <r>    8.6173    0.0000 </r>
       <r>    8.6177    0.0000 </r>
       <r>    8.6188    0.0000 </r>
       <r>    8.6196    0.0000 </r>
       <r>    8.6736    0.0000 </r>
       <r>    8.6738    0.0000 </r>
       <r>    8.7514    0.0000 </r>
       <r>    8.7514    0.0000 </r>
       <r>    8.7782    0.0000 </r>
       <r>    8.7782    0.0000 </r>
       <r>    8.7996    0.0000 </r>
       <r>    8.7999    0.0000 </r>
       <r>    8.8002    0.0000 </r>
       <r>    8.8004    0.0000 </r>
       <r>    8.8131    0.0000 </r>
       <r>    8.8136    0.0000 </r>
       <r>    8.8140    0.0000 </r>
       <r>    8.8145    0.0000 </r>
       <r>    8.8284    0.0000 </r>
       <r>    8.8285    0.0000 </r>
       <r>    8.8735    0.0000 </r>
       <r>    8.9972    0.0000 </r>
       <r>    9.0023    0.0000 </r>
       <r>    9.1443    0.0000 </r>
      </set>
      <set comment="kpoint 9">
       <r>  -19.2232    1.0000 </r>
       <r>  -19.2230    1.0000 </r>
       <r>  -19.2230    1.0000 </r>
       <r>  -19.2228    1.0000 </r>
       <r>  -19.2224    1.0000 </r>
       <r>  -19.2222    1.0000 </r>
       <r>  -19.2221    1.0000 </r>
       <r>  -19.2219    1.0000 </r>
       <r>  -19.2218    1.0000 </r>
       <r>  -19.2217    1.0000 </r>
       <r>  -19.2217    1.0000 </r>
       <r>  -19.2208    1.0000 </r>
       <r>  -19.2208    1.0000 </r>
       <r>  -19.2206    1.0000 </r>
       <r>  -19.2203    1.0000 </r>
       <r>  -19.2202    1.0000 </r>
       <r>  -19.2202    1.0000 </r>
       <r>  -19.2200    1.0000 </r>
       <r>  -19.2200    1.0000 </r>
       <r>  -19.2200    1.0000 </r>
       <r>  -19.2198    1.0000 </r>
       <r>  -19.2197    1.0000 </r>
       <r>  -19.2197    1.0000 </r>
       <r>  -19.2194    1.0000 </r>
       <r>  -19.2193    1.0000 </r>
       <r>  -19.2192    1.0000 </r>
       <r>  -19.2190    1.0000 </r>
       <r>  -19.2190    1.0000 </r>
       <r>  -19.2189    1.0000 </r>
       <r>  -19.2189    1.0000 </r>
       <r>  -19.2189    1.0000 </r>
       <r>  -19.2189    1.0000 </r>
       <r>  -19.2188    1.0000 </r>
       <r>  -19.2188    1.0000 </r>
       <r>  -19.2188    1.0000 </r>
       <r>  -19.2187    1.0000 </r>
       <r>  -19.2187    1.0000 </r>
       <r>  -19.2187    1.0000 </r>
       <r>  -19.2186    1.0000 </r>
       <r>  -19.2186    1.0000 </r>
       <r>  -19.2186    1.0000 </r>
       <r>  -19.2185    1.0000 </r>
       <r>  -19.2184    1.0000 </r>
       <r>  -19.2184    1.0000 </r>
       <r>  -19.2184    1.0000 </r>
       <r>  -19.2183    1.0000 </r>
       <r>  -19.2183    1.0000 </r>
       <r>  -19.2182    1.0000 </r>
       <r>  -19.2181    1.0000 </r>
       <r>  -19.2181    1.0000 </r>
       <r>  -19.2181    1.0000 </r>
       <r>  -19.2181    1.0000 </r>
       <r>  -19.2180    1.0000 </r>
       <r>  -19.2180    1.0000 </r>
       <r>  -19.2180    1.0000 </r>
       <r>  -19.2179    1.0000 </r>
       <r>  -19.2179    1.0000 </r>
       <r>  -19.2179    1.0000 </r>
       <r>  -19.2178    1.0000 </r>
       <r>  -19.2178    1.0000 </r>
       <r>  -19.2177    1.0000 </r>
       <r>  -19.2177    1.0000 </r>
       <r>  -19.2175    1.0000 </r>
       <r>  -19.2175    1.0000 </r>
       <r>  -19.2171    1.0000 </r>
       <r>  -19.2166    1.0000 </r>
       <r>  -19.2164    1.0000 </r>
       <r>  -19.2164    1.0000 </r>
       <r>  -19.2163    1.0000 </r>
       <r>  -19.2161    1.0000 </r>
       <r>  -19.2155    1.0000 </r>
       <r>  -19.2154    1.0000 </r>
       <r>  -19.2152    1.0000 </r>
       <r>  -19.2151    1.0000 </r>
       <r>  -19.2151    1.0000 </r>
       <r>  -19.2146    1.0000 </r>
       <r>  -19.2145    1.0000 </r>
       <r>  -19.2144    1.0000 </r>
       <r>  -19.2144    1.0000 </r>
       <r>  -19.2143    1.0000 </r>
       <r>  -19.2142    1.0000 </r>
       <r>  -19.2141    1.0000 </r>
       <r>  -19.2140    1.0000 </r>
       <r>  -19.2139    1.0000 </r>
       <r>  -19.2139    1.0000 </r>
       <r>  -19.2139    1.0000 </r>
       <r>  -19.2138    1.0000 </r>
       <r>  -19.2137    1.0000 </r>
       <r>  -19.2137    1.0000 </r>
       <r>  -19.2137    1.0000 </r>
       <r>  -19.2136    1.0000 </r>
       <r>  -19.2136    1.0000 </r>
       <r>  -19.2135    1.0000 </r>
       <r>  -19.2135    1.0000 </r>
       <r>  -19.2135    1.0000 </r>
       <r>  -19.2134    1.0000 </r>
       <r>  -19.2133    1.0000 </r>
       <r>  -19.2133    1.0000 </r>
       <r>  -19.2132    1.0000 </r>
       <r>  -19.2132    1.0000 </r>
       <r>  -19.2132    1.0000 </r>
       <r>  -19.2131    1.0000 </r>
       <r>  -19.2131    1.0000 </r>
       <r>  -19.2131    1.0000 </r>
       <r>  -19.2130    1.0000 </r>
       <r>  -19.2130    1.0000 </r>
       <r>  -19.2130    1.0000 </r>
       <r>  -19.2130    1.0000 </r>
       <r>  -19.2129    1.0000 </r>
       <r>  -19.2129    1.0000 </r>
       <r>  -19.2129    1.0000 </r>
       <r>  -19.2129    1.0000 </r>
       <r>  -19.2129    1.0000 </r>
       <r>  -19.2128    1.0000 </r>
       <r>  -19.2128    1.0000 </r>
       <r>  -19.2128    1.0000 </r>
       <r>  -19.2127    1.0000 </r>
       <r>  -19.2127    1.0000 </r>
       <r>  -19.2126    1.0000 </r>
       <r>  -19.2126    1.0000 </r>
       <r>  -19.2125    1.0000 </r>
       <r>  -19.2125    1.0000 </r>
       <r>  -19.2124    1.0000 </r>
       <r>  -19.2124    1.0000 </r>
       <r>  -19.2123    1.0000 </r>
       <r>  -19.2123    1.0000 </r>
       <r>  -19.2123    1.0000 </r>
       <r>  -19.2122    1.0000 </r>
       <r>  -19.2122    1.0000 </r>
       <r>  -19.2122    1.0000 </r>
       <r>  -19.2121    1.0000 </r>
       <r>  -19.2121    1.0000 </r>
       <r>  -19.2121    1.0000 </r>
       <r>  -19.2120    1.0000 </r>
       <r>  -19.2120    1.0000 </r>
       <r>  -19.2119    1.0000 </r>
       <r>  -19.2118    1.0000 </r>
       <r>  -19.2118    1.0000 </r>
       <r>  -19.2117    1.0000 </r>
       <r>  -19.2116    1.0000 </r>
       <r>  -19.2115    1.0000 </r>
       <r>  -19.2115    1.0000 </r>
       <r>  -19.2114    1.0000 </r>
       <r>  -19.2113    1.0000 </r>
       <r>  -19.2111    1.0000 </r>
       <r>  -19.2111    1.0000 </r>
       <r>  -19.2110    1.0000 </r>
       <r>  -19.2108    1.0000 </r>
       <r>  -19.2108    1.0000 </r>
       <r>  -19.2107    1.0000 </r>
       <r>  -19.2107    1.0000 </r>
       <r>  -19.2106    1.0000 </r>
       <r>  -19.2106    1.0000 </r>
       <r>  -19.2105    1.0000 </r>
       <r>  -19.2102    1.0000 </r>
       <r>  -19.2101    1.0000 </r>
       <r>  -19.2100    1.0000 </r>
       <r>  -19.2100    1.0000 </r>
       <r>  -19.2100    1.0000 </r>
       <r>  -19.2098    1.0000 </r>
       <r>  -19.2096    1.0000 </r>
       <r>  -19.2095    1.0000 </r>
       <r>  -19.2095    1.0000 </r>
       <r>  -19.2094    1.0000 </r>
       <r>  -19.2093    1.0000 </r>
       <r>  -19.2092    1.0000 </r>
       <r>  -19.2092    1.0000 </r>
       <r>  -19.2092    1.0000 </r>
       <r>  -19.2092    1.0000 </r>
       <r>  -19.2091    1.0000 </r>
       <r>  -19.2091    1.0000 </r>
       <r>  -19.2091    1.0000 </r>
       <r>  -19.2090    1.0000 </r>
       <r>  -19.2090    1.0000 </r>
       <r>  -19.2089    1.0000 </r>
       <r>  -19.2088    1.0000 </r>
       <r>  -19.2088    1.0000 </r>
       <r>  -19.2088    1.0000 </r>
       <r>  -19.2086    1.0000 </r>
       <r>  -19.2084    1.0000 </r>
       <r>  -19.2083    1.0000 </r>
       <r>  -19.2081    1.0000 </r>
       <r>  -19.2080    1.0000 </r>
       <r>  -19.2080    1.0000 </r>
       <r>  -19.2079    1.0000 </r>
       <r>  -19.2079    1.0000 </r>
       <r>  -19.2078    1.0000 </r>
       <r>  -19.2076    1.0000 </r>
       <r>  -19.2076    1.0000 </r>
       <r>  -19.2074    1.0000 </r>
       <r>  -19.2073    1.0000 </r>
       <r>  -19.2070    1.0000 </r>
       <r>  -19.1965    1.0000 </r>
       <r>  -19.1965    1.0000 </r>
       <r>  -19.1956    1.0000 </r>
       <r>  -19.1955    1.0000 </r>
       <r>  -19.1955    1.0000 </r>
       <r>  -19.1954    1.0000 </r>
       <r>  -19.1953    1.0000 </r>
       <r>  -19.1952    1.0000 </r>
       <r>  -19.1952    1.0000 </r>
       <r>  -19.1951    1.0000 </r>
       <r>  -19.1951    1.0000 </r>
       <r>  -19.1948    1.0000 </r>
       <r>  -19.1947    1.0000 </r>
       <r>  -19.1945    1.0000 </r>
       <r>  -19.1944    1.0000 </r>
       <r>  -19.1942    1.0000 </r>
       <r>  -19.1941    1.0000 </r>
       <r>  -19.1940    1.0000 </r>
       <r>  -19.1939    1.0000 </r>
       <r>  -19.1938    1.0000 </r>
       <r>  -19.1938    1.0000 </r>
       <r>  -19.1938    1.0000 </r>
       <r>  -19.1937    1.0000 </r>
       <r>  -19.1937    1.0000 </r>
       <r>  -19.1936    1.0000 </r>
       <r>  -19.1936    1.0000 </r>
       <r>  -19.1935    1.0000 </r>
       <r>  -19.1935    1.0000 </r>
       <r>  -19.1935    1.0000 </r>
       <r>  -19.1934    1.0000 </r>
       <r>  -19.1934    1.0000 </r>
       <r>  -19.1933    1.0000 </r>
       <r>  -19.1933    1.0000 </r>
       <r>  -19.1932    1.0000 </r>
       <r>  -19.1932    1.0000 </r>
       <r>  -19.1931    1.0000 </r>
       <r>  -19.1930    1.0000 </r>
       <r>  -19.1930    1.0000 </r>
       <r>  -19.1929    1.0000 </r>
       <r>  -19.1929    1.0000 </r>
       <r>  -19.1929    1.0000 </r>
       <r>  -19.1928    1.0000 </r>
       <r>  -19.1928    1.0000 </r>
       <r>  -19.1927    1.0000 </r>
       <r>  -19.1927    1.0000 </r>
       <r>  -19.1926    1.0000 </r>
       <r>  -19.1926    1.0000 </r>
       <r>  -19.1926    1.0000 </r>
       <r>  -19.1925    1.0000 </r>
       <r>  -19.1925    1.0000 </r>
       <r>  -19.1925    1.0000 </r>
       <r>  -19.1924    1.0000 </r>
       <r>  -19.1923    1.0000 </r>
       <r>  -19.1923    1.0000 </r>
       <r>  -19.1922    1.0000 </r>
       <r>  -19.1922    1.0000 </r>
       <r>  -19.1921    1.0000 </r>
       <r>  -19.1920    1.0000 </r>
       <r>  -19.1920    1.0000 </r>
       <r>  -19.1919    1.0000 </r>
       <r>  -19.1919    1.0000 </r>
       <r>  -19.1919    1.0000 </r>
       <r>  -19.1918    1.0000 </r>
       <r>  -19.1918    1.0000 </r>
       <r>  -19.1917    1.0000 </r>
       <r>  -19.1917    1.0000 </r>
       <r>  -19.1916    1.0000 </r>
       <r>  -19.1915    1.0000 </r>
       <r>  -19.1914    1.0000 </r>
       <r>  -19.1913    1.0000 </r>
       <r>  -19.1913    1.0000 </r>
       <r>  -19.1913    1.0000 </r>
       <r>  -19.1912    1.0000 </r>
       <r>  -19.1912    1.0000 </r>
       <r>  -19.1911    1.0000 </r>
       <r>  -19.1911    1.0000 </r>
       <r>  -19.1910    1.0000 </r>
       <r>  -19.1910    1.0000 </r>
       <r>  -19.1910    1.0000 </r>
       <r>  -19.1909    1.0000 </r>
       <r>  -19.1909    1.0000 </r>
       <r>  -19.1909    1.0000 </r>
       <r>  -19.1909    1.0000 </r>
       <r>  -19.1909    1.0000 </r>
       <r>  -19.1908    1.0000 </r>
       <r>  -19.1908    1.0000 </r>
       <r>  -19.1908    1.0000 </r>
       <r>  -19.1908    1.0000 </r>
       <r>  -19.1907    1.0000 </r>
       <r>  -19.1907    1.0000 </r>
       <r>  -19.1907    1.0000 </r>
       <r>  -19.1906    1.0000 </r>
       <r>  -19.1906    1.0000 </r>
       <r>  -19.1905    1.0000 </r>
       <r>  -19.1905    1.0000 </r>
       <r>  -19.1904    1.0000 </r>
       <r>  -19.1904    1.0000 </r>
       <r>  -19.1904    1.0000 </r>
       <r>  -19.1904    1.0000 </r>
       <r>  -19.1903    1.0000 </r>
       <r>  -19.1903    1.0000 </r>
       <r>  -19.1903    1.0000 </r>
       <r>  -19.1902    1.0000 </r>
       <r>  -19.1902    1.0000 </r>
       <r>  -19.1901    1.0000 </r>
       <r>  -19.1901    1.0000 </r>
       <r>  -19.1901    1.0000 </r>
       <r>  -19.1900    1.0000 </r>
       <r>  -19.1899    1.0000 </r>
       <r>  -19.1899    1.0000 </r>
       <r>  -19.1899    1.0000 </r>
       <r>  -19.1896    1.0000 </r>
       <r>  -19.1896    1.0000 </r>
       <r>  -19.1895    1.0000 </r>
       <r>  -19.1894    1.0000 </r>
       <r>  -19.1893    1.0000 </r>
       <r>  -19.1893    1.0000 </r>
       <r>  -19.1892    1.0000 </r>
       <r>  -19.1892    1.0000 </r>
       <r>  -19.1890    1.0000 </r>
       <r>  -19.1888    1.0000 </r>
       <r>  -19.1888    1.0000 </r>
       <r>  -19.1887    1.0000 </r>
       <r>  -19.1886    1.0000 </r>
       <r>  -19.1885    1.0000 </r>
       <r>  -19.1885    1.0000 </r>
       <r>  -19.1875    1.0000 </r>
       <r>  -19.1874    1.0000 </r>
       <r>   -6.8523    1.0000 </r>
       <r>   -6.7680    1.0000 </r>
       <r>   -6.7675    1.0000 </r>
       <r>   -6.5172    1.0000 </r>
       <r>   -6.5167    1.0000 </r>
       <r>   -6.1940    1.0000 </r>
       <r>   -6.1126    1.0000 </r>
       <r>   -6.1120    1.0000 </r>
       <r>   -6.1119    1.0000 </r>
       <r>   -6.1113    1.0000 </r>
       <r>   -5.8693    1.0000 </r>
       <r>   -5.8685    1.0000 </r>
       <r>   -5.5857    1.0000 </r>
       <r>   -5.5851    1.0000 </r>
       <r>   -5.5850    1.0000 </r>
       <r>   -5.5841    1.0000 </r>
       <r>   -5.5423    1.0000 </r>
       <r>   -5.5418    1.0000 </r>
       <r>   -5.4767    1.0000 </r>
       <r>   -5.4760    1.0000 </r>
       <r>   -5.4760    1.0000 </r>
       <r>   -5.4754    1.0000 </r>
       <r>   -5.3539    1.0000 </r>
       <r>   -5.3531    1.0000 </r>
       <r>   -5.2156    1.0000 </r>
       <r>   -5.2152    1.0000 </r>
       <r>   -5.0345    1.0000 </r>
       <r>   -5.0340    1.0000 </r>
       <r>   -5.0339    1.0000 </r>
       <r>   -5.0330    1.0000 </r>
       <r>   -4.9625    1.0000 </r>
       <r>   -4.9619    1.0000 </r>
       <r>   -4.8138    1.0000 </r>
       <r>   -4.8129    1.0000 </r>
       <r>   -4.7512    1.0000 </r>
       <r>   -4.7505    1.0000 </r>
       <r>   -4.7172    1.0000 </r>
       <r>   -4.7166    1.0000 </r>
       <r>   -4.6091    1.0000 </r>
       <r>   -4.6082    1.0000 </r>
       <r>   -4.6082    1.0000 </r>
       <r>   -4.6076    1.0000 </r>
       <r>   -4.4144    1.0000 </r>
       <r>   -4.4137    1.0000 </r>
       <r>   -4.4137    1.0000 </r>
       <r>   -4.4127    1.0000 </r>
       <r>   -4.3015    1.0000 </r>
       <r>   -4.3008    1.0000 </r>
       <r>   -4.1308    1.0000 </r>
       <r>   -4.1303    1.0000 </r>
       <r>   -4.1241    1.0000 </r>
       <r>   -4.1220    1.0000 </r>
       <r>   -4.1212    1.0000 </r>
       <r>   -4.1212    1.0000 </r>
       <r>   -4.1206    1.0000 </r>
       <r>   -4.1187    1.0000 </r>
       <r>   -4.1179    1.0000 </r>
       <r>   -3.7914    1.0000 </r>
       <r>   -3.7907    1.0000 </r>
       <r>   -3.7906    1.0000 </r>
       <r>   -3.7898    1.0000 </r>
       <r>   -3.7036    1.0000 </r>
       <r>   -3.7028    1.0000 </r>
       <r>   -3.5802    1.0000 </r>
       <r>   -2.6289    1.0000 </r>
       <r>   -2.4333    1.0000 </r>
       <r>   -2.4327    1.0000 </r>
       <r>   -2.3759    1.0000 </r>
       <r>   -2.3754    1.0000 </r>
       <r>   -2.3753    1.0000 </r>
       <r>   -2.3751    1.0000 </r>
       <r>   -2.0636    1.0000 </r>
       <r>   -2.0631    1.0000 </r>
       <r>   -2.0432    1.0000 </r>
       <r>   -2.0430    1.0000 </r>
       <r>   -2.0428    1.0000 </r>
       <r>   -2.0419    1.0000 </r>
       <r>   -2.0216    1.0000 </r>
       <r>   -1.9568    1.0000 </r>
       <r>   -1.9561    1.0000 </r>
       <r>   -1.9301    1.0000 </r>
       <r>   -1.9294    1.0000 </r>
       <r>   -1.8639    1.0000 </r>
       <r>   -1.8631    1.0000 </r>
       <r>   -1.8300    1.0000 </r>
       <r>   -1.8295    1.0000 </r>
       <r>   -1.7271    1.0000 </r>
       <r>   -1.7270    1.0000 </r>
       <r>   -1.7269    1.0000 </r>
       <r>   -1.7257    1.0000 </r>
       <r>   -1.7041    1.0000 </r>
       <r>   -1.7034    1.0000 </r>
       <r>   -1.7031    1.0000 </r>
       <r>   -1.7028    1.0000 </r>
       <r>   -1.4931    1.0000 </r>
       <r>   -1.4920    1.0000 </r>
       <r>   -1.4918    1.0000 </r>
       <r>   -1.4916    1.0000 </r>
       <r>   -1.2166    1.0000 </r>
       <r>   -1.2158    1.0000 </r>
       <r>   -1.1756    1.0000 </r>
       <r>   -1.1750    1.0000 </r>
       <r>   -0.9995    1.0000 </r>
       <r>   -0.9989    1.0000 </r>
       <r>   -0.8620    1.0000 </r>
       <r>   -0.8613    1.0000 </r>
       <r>   -0.5877    1.0000 </r>
       <r>   -0.5869    1.0000 </r>
       <r>   -0.4899    1.0000 </r>
       <r>   -0.4892    1.0000 </r>
       <r>   -0.4889    1.0000 </r>
       <r>   -0.4888    1.0000 </r>
       <r>   -0.3133    1.0000 </r>
       <r>   -0.3128    1.0000 </r>
       <r>   -0.3128    1.0000 </r>
       <r>   -0.3118    1.0000 </r>
       <r>    0.2645    1.0000 </r>
       <r>    0.2651    1.0000 </r>
       <r>    0.7354    1.0000 </r>
       <r>    0.7361    1.0000 </r>
       <r>    0.7364    1.0000 </r>
       <r>    0.7366    1.0000 </r>
       <r>    0.8141    1.0000 </r>
       <r>    0.9580    1.0000 </r>
       <r>    0.9582    1.0000 </r>
       <r>    0.9584    1.0000 </r>
       <r>    0.9587    1.0000 </r>
       <r>    0.9594    1.0000 </r>
       <r>    0.9758    1.0000 </r>
       <r>    0.9761    1.0000 </r>
       <r>    1.1452    1.0000 </r>
       <r>    1.1456    1.0000 </r>
       <r>    1.2444    1.0000 </r>
       <r>    1.2446    1.0000 </r>
       <r>    1.2450    1.0000 </r>
       <r>    1.2452    1.0000 </r>
       <r>    1.3429    1.0000 </r>
       <r>    1.4035    1.0000 </r>
       <r>    1.4040    1.0000 </r>
       <r>    1.4282    1.0000 </r>
       <r>    1.4284    1.0000 </r>
       <r>    1.4286    1.0000 </r>
       <r>    1.4289    1.0000 </r>
       <r>    1.4965    1.0000 </r>
       <r>    1.4967    1.0000 </r>
       <r>    1.4971    1.0000 </r>
       <r>    1.4974    1.0000 </r>
       <r>    1.5859    1.0000 </r>
       <r>    1.5862    1.0000 </r>
       <r>    1.9360    1.0000 </r>
       <r>    1.9365    1.0000 </r>
       <r>    1.9910    1.0000 </r>
       <r>    1.9912    1.0000 </r>
       <r>    2.0109    1.0000 </r>
       <r>    2.0111    1.0000 </r>
       <r>    2.0300    1.0000 </r>
       <r>    2.0303    1.0000 </r>
       <r>    2.1432    1.0000 </r>
       <r>    2.1436    1.0000 </r>
       <r>    2.1437    1.0000 </r>
       <r>    2.1438    1.0000 </r>
       <r>    2.1879    1.0000 </r>
       <r>    2.1884    1.0000 </r>
       <r>    2.2072    1.0000 </r>
       <r>    2.2078    1.0000 </r>
       <r>    2.2269    1.0000 </r>
       <r>    2.2272    1.0000 </r>
       <r>    2.2275    1.0000 </r>
       <r>    2.2277    1.0000 </r>
       <r>    2.2712    1.0000 </r>
       <r>    2.2716    1.0000 </r>
       <r>    2.3339    1.0000 </r>
       <r>    2.3345    1.0000 </r>
       <r>    2.3756    1.0000 </r>
       <r>    2.3759    1.0000 </r>
       <r>    2.3877    1.0000 </r>
       <r>    2.3884    1.0000 </r>
       <r>    2.4119    1.0000 </r>
       <r>    2.4346    1.0000 </r>
       <r>    2.4350    1.0000 </r>
       <r>    2.4353    1.0000 </r>
       <r>    2.4355    1.0000 </r>
       <r>    2.4957    1.0000 </r>
       <r>    2.4960    1.0000 </r>
       <r>    2.4962    1.0000 </r>
       <r>    2.4969    1.0000 </r>
       <r>    2.5162    1.0000 </r>
       <r>    2.5168    1.0000 </r>
       <r>    2.5928    1.0000 </r>
       <r>    2.5931    1.0000 </r>
       <r>    2.5934    1.0000 </r>
       <r>    2.5940    1.0000 </r>
       <r>    2.6746    1.0000 </r>
       <r>    2.6748    1.0000 </r>
       <r>    2.6751    1.0000 </r>
       <r>    2.6755    1.0000 </r>
       <r>    2.6848    1.0000 </r>
       <r>    2.6849    1.0000 </r>
       <r>    2.7078    1.0000 </r>
       <r>    2.8030    1.0000 </r>
       <r>    2.8036    1.0000 </r>
       <r>    2.8093    1.0000 </r>
       <r>    2.8101    1.0000 </r>
       <r>    2.9066    1.0000 </r>
       <r>    2.9067    1.0000 </r>
       <r>    2.9070    1.0000 </r>
       <r>    2.9080    1.0000 </r>
       <r>    2.9523    1.0000 </r>
       <r>    3.0162    1.0000 </r>
       <r>    3.0169    1.0000 </r>
       <r>    3.1080    1.0000 </r>
       <r>    3.1082    1.0000 </r>
       <r>    3.1084    1.0000 </r>
       <r>    3.1089    1.0000 </r>
       <r>    3.1567    1.0000 </r>
       <r>    3.1581    1.0000 </r>
       <r>    3.1583    1.0000 </r>
       <r>    3.1589    1.0000 </r>
       <r>    3.1591    1.0000 </r>
       <r>    3.1594    1.0000 </r>
       <r>    3.1600    1.0000 </r>
       <r>    3.3332    1.0000 </r>
       <r>    3.3341    1.0000 </r>
       <r>    3.3941    1.0000 </r>
       <r>    3.3946    1.0000 </r>
       <r>    3.4134    1.0000 </r>
       <r>    3.4138    1.0000 </r>
       <r>    3.4583    1.0000 </r>
       <r>    3.4590    1.0000 </r>
       <r>    3.4714    1.0000 </r>
       <r>    3.4716    1.0000 </r>
       <r>    3.4998    1.0000 </r>
       <r>    3.5000    1.0000 </r>
       <r>    3.5001    1.0000 </r>
       <r>    3.5015    1.0000 </r>
       <r>    3.6446    1.0000 </r>
       <r>    3.6455    1.0000 </r>
       <r>    3.7359    1.0000 </r>
       <r>    3.7362    1.0000 </r>
       <r>    3.7364    1.0000 </r>
       <r>    3.7372    1.0000 </r>
       <r>    4.0458    1.0000 </r>
       <r>    4.0467    1.0000 </r>
       <r>    4.0567    1.0000 </r>
       <r>    4.0572    1.0000 </r>
       <r>    4.0574    1.0000 </r>
       <r>    4.0578    1.0000 </r>
       <r>    4.2408    1.0000 </r>
       <r>    4.3027    1.0000 </r>
       <r>    4.3037    1.0000 </r>
       <r>    4.3333    1.0000 </r>
       <r>    4.3343    1.0000 </r>
       <r>    4.4240    1.0000 </r>
       <r>    4.4249    1.0000 </r>
       <r>    4.4897    1.0000 </r>
       <r>    4.9695    1.0000 </r>
       <r>    6.0211    0.0000 </r>
       <r>    6.0216    0.0000 </r>
       <r>    6.1067    0.0000 </r>
       <r>    6.3299    0.0000 </r>
       <r>    6.3305    0.0000 </r>
       <r>    6.4851    0.0000 </r>
       <r>    6.4858    0.0000 </r>
       <r>    6.6369    0.0000 </r>
       <r>    6.6372    0.0000 </r>
       <r>    6.6450    0.0000 </r>
       <r>    6.6456    0.0000 </r>
       <r>    6.6459    0.0000 </r>
       <r>    6.6464    0.0000 </r>
       <r>    6.6566    0.0000 </r>
       <r>    6.6568    0.0000 </r>
       <r>    6.6635    0.0000 </r>
       <r>    6.8695    0.0000 </r>
       <r>    6.8701    0.0000 </r>
       <r>    6.9487    0.0000 </r>
       <r>    6.9491    0.0000 </r>
       <r>    6.9978    0.0000 </r>
       <r>    6.9984    0.0000 </r>
       <r>    7.0434    0.0000 </r>
       <r>    7.0440    0.0000 </r>
       <r>    7.0606    0.0000 </r>
       <r>    7.0610    0.0000 </r>
       <r>    7.1793    0.0000 </r>
       <r>    7.1798    0.0000 </r>
       <r>    7.1800    0.0000 </r>
       <r>    7.1805    0.0000 </r>
       <r>    7.1830    0.0000 </r>
       <r>    7.1833    0.0000 </r>
       <r>    7.2072    0.0000 </r>
       <r>    7.2078    0.0000 </r>
       <r>    7.2078    0.0000 </r>
       <r>    7.2084    0.0000 </r>
       <r>    7.2314    0.0000 </r>
       <r>    7.2316    0.0000 </r>
       <r>    7.2318    0.0000 </r>
       <r>    7.2320    0.0000 </r>
       <r>    7.2322    0.0000 </r>
       <r>    7.2997    0.0000 </r>
       <r>    7.2999    0.0000 </r>
       <r>    7.3669    0.0000 </r>
       <r>    7.3671    0.0000 </r>
       <r>    7.3673    0.0000 </r>
       <r>    7.3679    0.0000 </r>
       <r>    7.3844    0.0000 </r>
       <r>    7.3850    0.0000 </r>
       <r>    7.5169    0.0000 </r>
       <r>    7.5170    0.0000 </r>
       <r>    7.5175    0.0000 </r>
       <r>    7.5180    0.0000 </r>
       <r>    7.5411    0.0000 </r>
       <r>    7.5476    0.0000 </r>
       <r>    7.5482    0.0000 </r>
       <r>    7.5483    0.0000 </r>
       <r>    7.5487    0.0000 </r>
       <r>    7.6242    0.0000 </r>
       <r>    7.6243    0.0000 </r>
       <r>    7.6830    0.0000 </r>
       <r>    7.7015    0.0000 </r>
       <r>    7.7020    0.0000 </r>
       <r>    7.7290    0.0000 </r>
       <r>    7.7297    0.0000 </r>
       <r>    7.7819    0.0000 </r>
       <r>    7.7823    0.0000 </r>
       <r>    7.7827    0.0000 </r>
       <r>    7.7830    0.0000 </r>
       <r>    7.8833    0.0000 </r>
       <r>    7.8984    0.0000 </r>
       <r>    7.8990    0.0000 </r>
       <r>    7.9487    0.0000 </r>
       <r>    7.9490    0.0000 </r>
       <r>    8.0215    0.0000 </r>
       <r>    8.1597    0.0000 </r>
       <r>    8.1604    0.0000 </r>
       <r>    8.1605    0.0000 </r>
       <r>    8.1607    0.0000 </r>
       <r>    8.2461    0.0000 </r>
       <r>    8.2463    0.0000 </r>
       <r>    8.2524    0.0000 </r>
       <r>    8.2526    0.0000 </r>
       <r>    8.2527    0.0000 </r>
       <r>    8.2538    0.0000 </r>
       <r>    8.3603    0.0000 </r>
       <r>    8.3606    0.0000 </r>
       <r>    8.4029    0.0000 </r>
       <r>    8.4036    0.0000 </r>
       <r>    8.4273    0.0000 </r>
       <r>    8.4275    0.0000 </r>
       <r>    8.4280    0.0000 </r>
       <r>    8.4283    0.0000 </r>
       <r>    8.4316    0.0000 </r>
       <r>    8.4320    0.0000 </r>
       <r>    8.4323    0.0000 </r>
       <r>    8.4334    0.0000 </r>
       <r>    8.4681    0.0000 </r>
       <r>    8.4685    0.0000 </r>
       <r>    8.6107    0.0000 </r>
       <r>    8.6112    0.0000 </r>
       <r>    8.6131    0.0000 </r>
       <r>    8.6170    0.0000 </r>
       <r>    8.6173    0.0000 </r>
       <r>    8.6176    0.0000 </r>
       <r>    8.6178    0.0000 </r>
       <r>    8.6186    0.0000 </r>
       <r>    8.6192    0.0000 </r>
       <r>    8.6735    0.0000 </r>
       <r>    8.6738    0.0000 </r>
       <r>    8.7512    0.0000 </r>
       <r>    8.7518    0.0000 </r>
       <r>    8.7782    0.0000 </r>
       <r>    8.7789    0.0000 </r>
       <r>    8.7995    0.0000 </r>
       <r>    8.7999    0.0000 </r>
       <r>    8.8003    0.0000 </r>
       <r>    8.8006    0.0000 </r>
       <r>    8.8134    0.0000 </r>
       <r>    8.8136    0.0000 </r>
       <r>    8.8141    0.0000 </r>
       <r>    8.8146    0.0000 </r>
       <r>    8.8278    0.0000 </r>
       <r>    8.8282    0.0000 </r>
       <r>    8.8732    0.0000 </r>
       <r>    8.9965    0.0000 </r>
       <r>    8.9990    0.0000 </r>
       <r>    9.1501    0.0000 </r>
      </set>
      <set comment="kpoint 10">
       <r>  -19.2231    1.0000 </r>
       <r>  -19.2230    1.0000 </r>
       <r>  -19.2230    1.0000 </r>
       <r>  -19.2229    1.0000 </r>
       <r>  -19.2223    1.0000 </r>
       <r>  -19.2221    1.0000 </r>
       <r>  -19.2221    1.0000 </r>
       <r>  -19.2218    1.0000 </r>
       <r>  -19.2218    1.0000 </r>
       <r>  -19.2218    1.0000 </r>
       <r>  -19.2218    1.0000 </r>
       <r>  -19.2208    1.0000 </r>
       <r>  -19.2208    1.0000 </r>
       <r>  -19.2206    1.0000 </r>
       <r>  -19.2204    1.0000 </r>
       <r>  -19.2203    1.0000 </r>
       <r>  -19.2202    1.0000 </r>
       <r>  -19.2201    1.0000 </r>
       <r>  -19.2200    1.0000 </r>
       <r>  -19.2200    1.0000 </r>
       <r>  -19.2198    1.0000 </r>
       <r>  -19.2197    1.0000 </r>
       <r>  -19.2197    1.0000 </r>
       <r>  -19.2194    1.0000 </r>
       <r>  -19.2192    1.0000 </r>
       <r>  -19.2192    1.0000 </r>
       <r>  -19.2190    1.0000 </r>
       <r>  -19.2190    1.0000 </r>
       <r>  -19.2189    1.0000 </r>
       <r>  -19.2189    1.0000 </r>
       <r>  -19.2189    1.0000 </r>
       <r>  -19.2189    1.0000 </r>
       <r>  -19.2188    1.0000 </r>
       <r>  -19.2188    1.0000 </r>
       <r>  -19.2188    1.0000 </r>
       <r>  -19.2187    1.0000 </r>
       <r>  -19.2187    1.0000 </r>
       <r>  -19.2187    1.0000 </r>
       <r>  -19.2186    1.0000 </r>
       <r>  -19.2186    1.0000 </r>
       <r>  -19.2185    1.0000 </r>
       <r>  -19.2185    1.0000 </r>
       <r>  -19.2184    1.0000 </r>
       <r>  -19.2184    1.0000 </r>
       <r>  -19.2184    1.0000 </r>
       <r>  -19.2183    1.0000 </r>
       <r>  -19.2183    1.0000 </r>
       <r>  -19.2182    1.0000 </r>
       <r>  -19.2182    1.0000 </r>
       <r>  -19.2181    1.0000 </r>
       <r>  -19.2181    1.0000 </r>
       <r>  -19.2181    1.0000 </r>
       <r>  -19.2180    1.0000 </r>
       <r>  -19.2180    1.0000 </r>
       <r>  -19.2179    1.0000 </r>
       <r>  -19.2179    1.0000 </r>
       <r>  -19.2179    1.0000 </r>
       <r>  -19.2178    1.0000 </r>
       <r>  -19.2178    1.0000 </r>
       <r>  -19.2178    1.0000 </r>
       <r>  -19.2177    1.0000 </r>
       <r>  -19.2176    1.0000 </r>
       <r>  -19.2175    1.0000 </r>
       <r>  -19.2175    1.0000 </r>
       <r>  -19.2172    1.0000 </r>
       <r>  -19.2166    1.0000 </r>
       <r>  -19.2163    1.0000 </r>
       <r>  -19.2163    1.0000 </r>
       <r>  -19.2162    1.0000 </r>
       <r>  -19.2162    1.0000 </r>
       <r>  -19.2155    1.0000 </r>
       <r>  -19.2154    1.0000 </r>
       <r>  -19.2153    1.0000 </r>
       <r>  -19.2152    1.0000 </r>
       <r>  -19.2151    1.0000 </r>
       <r>  -19.2146    1.0000 </r>
       <r>  -19.2145    1.0000 </r>
       <r>  -19.2144    1.0000 </r>
       <r>  -19.2144    1.0000 </r>
       <r>  -19.2143    1.0000 </r>
       <r>  -19.2142    1.0000 </r>
       <r>  -19.2141    1.0000 </r>
       <r>  -19.2140    1.0000 </r>
       <r>  -19.2140    1.0000 </r>
       <r>  -19.2139    1.0000 </r>
       <r>  -19.2139    1.0000 </r>
       <r>  -19.2138    1.0000 </r>
       <r>  -19.2137    1.0000 </r>
       <r>  -19.2137    1.0000 </r>
       <r>  -19.2136    1.0000 </r>
       <r>  -19.2136    1.0000 </r>
       <r>  -19.2135    1.0000 </r>
       <r>  -19.2135    1.0000 </r>
       <r>  -19.2135    1.0000 </r>
       <r>  -19.2134    1.0000 </r>
       <r>  -19.2134    1.0000 </r>
       <r>  -19.2133    1.0000 </r>
       <r>  -19.2133    1.0000 </r>
       <r>  -19.2133    1.0000 </r>
       <r>  -19.2132    1.0000 </r>
       <r>  -19.2132    1.0000 </r>
       <r>  -19.2131    1.0000 </r>
       <r>  -19.2131    1.0000 </r>
       <r>  -19.2131    1.0000 </r>
       <r>  -19.2131    1.0000 </r>
       <r>  -19.2130    1.0000 </r>
       <r>  -19.2130    1.0000 </r>
       <r>  -19.2130    1.0000 </r>
       <r>  -19.2130    1.0000 </r>
       <r>  -19.2129    1.0000 </r>
       <r>  -19.2129    1.0000 </r>
       <r>  -19.2129    1.0000 </r>
       <r>  -19.2128    1.0000 </r>
       <r>  -19.2128    1.0000 </r>
       <r>  -19.2128    1.0000 </r>
       <r>  -19.2127    1.0000 </r>
       <r>  -19.2127    1.0000 </r>
       <r>  -19.2127    1.0000 </r>
       <r>  -19.2126    1.0000 </r>
       <r>  -19.2125    1.0000 </r>
       <r>  -19.2125    1.0000 </r>
       <r>  -19.2125    1.0000 </r>
       <r>  -19.2124    1.0000 </r>
       <r>  -19.2123    1.0000 </r>
       <r>  -19.2123    1.0000 </r>
       <r>  -19.2123    1.0000 </r>
       <r>  -19.2122    1.0000 </r>
       <r>  -19.2122    1.0000 </r>
       <r>  -19.2122    1.0000 </r>
       <r>  -19.2122    1.0000 </r>
       <r>  -19.2122    1.0000 </r>
       <r>  -19.2121    1.0000 </r>
       <r>  -19.2121    1.0000 </r>
       <r>  -19.2120    1.0000 </r>
       <r>  -19.2120    1.0000 </r>
       <r>  -19.2119    1.0000 </r>
       <r>  -19.2118    1.0000 </r>
       <r>  -19.2118    1.0000 </r>
       <r>  -19.2117    1.0000 </r>
       <r>  -19.2116    1.0000 </r>
       <r>  -19.2115    1.0000 </r>
       <r>  -19.2115    1.0000 </r>
       <r>  -19.2115    1.0000 </r>
       <r>  -19.2114    1.0000 </r>
       <r>  -19.2113    1.0000 </r>
       <r>  -19.2110    1.0000 </r>
       <r>  -19.2110    1.0000 </r>
       <r>  -19.2108    1.0000 </r>
       <r>  -19.2108    1.0000 </r>
       <r>  -19.2106    1.0000 </r>
       <r>  -19.2106    1.0000 </r>
       <r>  -19.2106    1.0000 </r>
       <r>  -19.2105    1.0000 </r>
       <r>  -19.2105    1.0000 </r>
       <r>  -19.2102    1.0000 </r>
       <r>  -19.2102    1.0000 </r>
       <r>  -19.2101    1.0000 </r>
       <r>  -19.2100    1.0000 </r>
       <r>  -19.2099    1.0000 </r>
       <r>  -19.2098    1.0000 </r>
       <r>  -19.2096    1.0000 </r>
       <r>  -19.2095    1.0000 </r>
       <r>  -19.2095    1.0000 </r>
       <r>  -19.2095    1.0000 </r>
       <r>  -19.2093    1.0000 </r>
       <r>  -19.2092    1.0000 </r>
       <r>  -19.2092    1.0000 </r>
       <r>  -19.2092    1.0000 </r>
       <r>  -19.2091    1.0000 </r>
       <r>  -19.2091    1.0000 </r>
       <r>  -19.2091    1.0000 </r>
       <r>  -19.2090    1.0000 </r>
       <r>  -19.2090    1.0000 </r>
       <r>  -19.2089    1.0000 </r>
       <r>  -19.2089    1.0000 </r>
       <r>  -19.2089    1.0000 </r>
       <r>  -19.2088    1.0000 </r>
       <r>  -19.2087    1.0000 </r>
       <r>  -19.2086    1.0000 </r>
       <r>  -19.2086    1.0000 </r>
       <r>  -19.2084    1.0000 </r>
       <r>  -19.2081    1.0000 </r>
       <r>  -19.2081    1.0000 </r>
       <r>  -19.2080    1.0000 </r>
       <r>  -19.2080    1.0000 </r>
       <r>  -19.2079    1.0000 </r>
       <r>  -19.2077    1.0000 </r>
       <r>  -19.2076    1.0000 </r>
       <r>  -19.2075    1.0000 </r>
       <r>  -19.2073    1.0000 </r>
       <r>  -19.2073    1.0000 </r>
       <r>  -19.2071    1.0000 </r>
       <r>  -19.1965    1.0000 </r>
       <r>  -19.1965    1.0000 </r>
       <r>  -19.1957    1.0000 </r>
       <r>  -19.1956    1.0000 </r>
       <r>  -19.1955    1.0000 </r>
       <r>  -19.1953    1.0000 </r>
       <r>  -19.1952    1.0000 </r>
       <r>  -19.1952    1.0000 </r>
       <r>  -19.1952    1.0000 </r>
       <r>  -19.1950    1.0000 </r>
       <r>  -19.1950    1.0000 </r>
       <r>  -19.1948    1.0000 </r>
       <r>  -19.1948    1.0000 </r>
       <r>  -19.1945    1.0000 </r>
       <r>  -19.1945    1.0000 </r>
       <r>  -19.1942    1.0000 </r>
       <r>  -19.1942    1.0000 </r>
       <r>  -19.1939    1.0000 </r>
       <r>  -19.1939    1.0000 </r>
       <r>  -19.1938    1.0000 </r>
       <r>  -19.1938    1.0000 </r>
       <r>  -19.1938    1.0000 </r>
       <r>  -19.1936    1.0000 </r>
       <r>  -19.1936    1.0000 </r>
       <r>  -19.1936    1.0000 </r>
       <r>  -19.1936    1.0000 </r>
       <r>  -19.1935    1.0000 </r>
       <r>  -19.1935    1.0000 </r>
       <r>  -19.1935    1.0000 </r>
       <r>  -19.1934    1.0000 </r>
       <r>  -19.1934    1.0000 </r>
       <r>  -19.1934    1.0000 </r>
       <r>  -19.1933    1.0000 </r>
       <r>  -19.1932    1.0000 </r>
       <r>  -19.1931    1.0000 </r>
       <r>  -19.1931    1.0000 </r>
       <r>  -19.1930    1.0000 </r>
       <r>  -19.1930    1.0000 </r>
       <r>  -19.1929    1.0000 </r>
       <r>  -19.1929    1.0000 </r>
       <r>  -19.1928    1.0000 </r>
       <r>  -19.1927    1.0000 </r>
       <r>  -19.1927    1.0000 </r>
       <r>  -19.1927    1.0000 </r>
       <r>  -19.1927    1.0000 </r>
       <r>  -19.1926    1.0000 </r>
       <r>  -19.1926    1.0000 </r>
       <r>  -19.1926    1.0000 </r>
       <r>  -19.1925    1.0000 </r>
       <r>  -19.1925    1.0000 </r>
       <r>  -19.1925    1.0000 </r>
       <r>  -19.1924    1.0000 </r>
       <r>  -19.1923    1.0000 </r>
       <r>  -19.1923    1.0000 </r>
       <r>  -19.1922    1.0000 </r>
       <r>  -19.1921    1.0000 </r>
       <r>  -19.1921    1.0000 </r>
       <r>  -19.1921    1.0000 </r>
       <r>  -19.1920    1.0000 </r>
       <r>  -19.1920    1.0000 </r>
       <r>  -19.1919    1.0000 </r>
       <r>  -19.1919    1.0000 </r>
       <r>  -19.1918    1.0000 </r>
       <r>  -19.1918    1.0000 </r>
       <r>  -19.1917    1.0000 </r>
       <r>  -19.1917    1.0000 </r>
       <r>  -19.1916    1.0000 </r>
       <r>  -19.1915    1.0000 </r>
       <r>  -19.1914    1.0000 </r>
       <r>  -19.1913    1.0000 </r>
       <r>  -19.1912    1.0000 </r>
       <r>  -19.1912    1.0000 </r>
       <r>  -19.1912    1.0000 </r>
       <r>  -19.1911    1.0000 </r>
       <r>  -19.1911    1.0000 </r>
       <r>  -19.1911    1.0000 </r>
       <r>  -19.1910    1.0000 </r>
       <r>  -19.1910    1.0000 </r>
       <r>  -19.1910    1.0000 </r>
       <r>  -19.1910    1.0000 </r>
       <r>  -19.1909    1.0000 </r>
       <r>  -19.1909    1.0000 </r>
       <r>  -19.1908    1.0000 </r>
       <r>  -19.1908    1.0000 </r>
       <r>  -19.1908    1.0000 </r>
       <r>  -19.1908    1.0000 </r>
       <r>  -19.1908    1.0000 </r>
       <r>  -19.1908    1.0000 </r>
       <r>  -19.1907    1.0000 </r>
       <r>  -19.1907    1.0000 </r>
       <r>  -19.1907    1.0000 </r>
       <r>  -19.1907    1.0000 </r>
       <r>  -19.1906    1.0000 </r>
       <r>  -19.1906    1.0000 </r>
       <r>  -19.1905    1.0000 </r>
       <r>  -19.1904    1.0000 </r>
       <r>  -19.1904    1.0000 </r>
       <r>  -19.1904    1.0000 </r>
       <r>  -19.1903    1.0000 </r>
       <r>  -19.1903    1.0000 </r>
       <r>  -19.1903    1.0000 </r>
       <r>  -19.1902    1.0000 </r>
       <r>  -19.1902    1.0000 </r>
       <r>  -19.1902    1.0000 </r>
       <r>  -19.1902    1.0000 </r>
       <r>  -19.1901    1.0000 </r>
       <r>  -19.1901    1.0000 </r>
       <r>  -19.1900    1.0000 </r>
       <r>  -19.1900    1.0000 </r>
       <r>  -19.1899    1.0000 </r>
       <r>  -19.1899    1.0000 </r>
       <r>  -19.1897    1.0000 </r>
       <r>  -19.1896    1.0000 </r>
       <r>  -19.1895    1.0000 </r>
       <r>  -19.1894    1.0000 </r>
       <r>  -19.1892    1.0000 </r>
       <r>  -19.1892    1.0000 </r>
       <r>  -19.1891    1.0000 </r>
       <r>  -19.1891    1.0000 </r>
       <r>  -19.1890    1.0000 </r>
       <r>  -19.1889    1.0000 </r>
       <r>  -19.1889    1.0000 </r>
       <r>  -19.1888    1.0000 </r>
       <r>  -19.1885    1.0000 </r>
       <r>  -19.1885    1.0000 </r>
       <r>  -19.1884    1.0000 </r>
       <r>  -19.1875    1.0000 </r>
       <r>  -19.1874    1.0000 </r>
       <r>   -6.8523    1.0000 </r>
       <r>   -6.7677    1.0000 </r>
       <r>   -6.7677    1.0000 </r>
       <r>   -6.5170    1.0000 </r>
       <r>   -6.5170    1.0000 </r>
       <r>   -6.1940    1.0000 </r>
       <r>   -6.1120    1.0000 </r>
       <r>   -6.1119    1.0000 </r>
       <r>   -6.1119    1.0000 </r>
       <r>   -6.1119    1.0000 </r>
       <r>   -5.8689    1.0000 </r>
       <r>   -5.8688    1.0000 </r>
       <r>   -5.5851    1.0000 </r>
       <r>   -5.5850    1.0000 </r>
       <r>   -5.5850    1.0000 </r>
       <r>   -5.5850    1.0000 </r>
       <r>   -5.5421    1.0000 </r>
       <r>   -5.5418    1.0000 </r>
       <r>   -5.4761    1.0000 </r>
       <r>   -5.4760    1.0000 </r>
       <r>   -5.4760    1.0000 </r>
       <r>   -5.4759    1.0000 </r>
       <r>   -5.3536    1.0000 </r>
       <r>   -5.3533    1.0000 </r>
       <r>   -5.2154    1.0000 </r>
       <r>   -5.2154    1.0000 </r>
       <r>   -5.0340    1.0000 </r>
       <r>   -5.0340    1.0000 </r>
       <r>   -5.0339    1.0000 </r>
       <r>   -5.0339    1.0000 </r>
       <r>   -4.9623    1.0000 </r>
       <r>   -4.9623    1.0000 </r>
       <r>   -4.8134    1.0000 </r>
       <r>   -4.8133    1.0000 </r>
       <r>   -4.7510    1.0000 </r>
       <r>   -4.7510    1.0000 </r>
       <r>   -4.7170    1.0000 </r>
       <r>   -4.7166    1.0000 </r>
       <r>   -4.6086    1.0000 </r>
       <r>   -4.6082    1.0000 </r>
       <r>   -4.6082    1.0000 </r>
       <r>   -4.6078    1.0000 </r>
       <r>   -4.4139    1.0000 </r>
       <r>   -4.4137    1.0000 </r>
       <r>   -4.4137    1.0000 </r>
       <r>   -4.4135    1.0000 </r>
       <r>   -4.3012    1.0000 </r>
       <r>   -4.3012    1.0000 </r>
       <r>   -4.1304    1.0000 </r>
       <r>   -4.1304    1.0000 </r>
       <r>   -4.1238    1.0000 </r>
       <r>   -4.1216    1.0000 </r>
       <r>   -4.1212    1.0000 </r>
       <r>   -4.1212    1.0000 </r>
       <r>   -4.1207    1.0000 </r>
       <r>   -4.1185    1.0000 </r>
       <r>   -4.1184    1.0000 </r>
       <r>   -3.7907    1.0000 </r>
       <r>   -3.7907    1.0000 </r>
       <r>   -3.7906    1.0000 </r>
       <r>   -3.7906    1.0000 </r>
       <r>   -3.7034    1.0000 </r>
       <r>   -3.7034    1.0000 </r>
       <r>   -3.5801    1.0000 </r>
       <r>   -2.6291    1.0000 </r>
       <r>   -2.4327    1.0000 </r>
       <r>   -2.4327    1.0000 </r>
       <r>   -2.3754    1.0000 </r>
       <r>   -2.3754    1.0000 </r>
       <r>   -2.3753    1.0000 </r>
       <r>   -2.3753    1.0000 </r>
       <r>   -2.0632    1.0000 </r>
       <r>   -2.0632    1.0000 </r>
       <r>   -2.0438    1.0000 </r>
       <r>   -2.0429    1.0000 </r>
       <r>   -2.0428    1.0000 </r>
       <r>   -2.0419    1.0000 </r>
       <r>   -2.0220    1.0000 </r>
       <r>   -1.9567    1.0000 </r>
       <r>   -1.9567    1.0000 </r>
       <r>   -1.9295    1.0000 </r>
       <r>   -1.9295    1.0000 </r>
       <r>   -1.8643    1.0000 </r>
       <r>   -1.8633    1.0000 </r>
       <r>   -1.8296    1.0000 </r>
       <r>   -1.8296    1.0000 </r>
       <r>   -1.7280    1.0000 </r>
       <r>   -1.7269    1.0000 </r>
       <r>   -1.7269    1.0000 </r>
       <r>   -1.7258    1.0000 </r>
       <r>   -1.7037    1.0000 </r>
       <r>   -1.7033    1.0000 </r>
       <r>   -1.7032    1.0000 </r>
       <r>   -1.7028    1.0000 </r>
       <r>   -1.4919    1.0000 </r>
       <r>   -1.4919    1.0000 </r>
       <r>   -1.4918    1.0000 </r>
       <r>   -1.4918    1.0000 </r>
       <r>   -1.2169    1.0000 </r>
       <r>   -1.2159    1.0000 </r>
       <r>   -1.1755    1.0000 </r>
       <r>   -1.1751    1.0000 </r>
       <r>   -0.9989    1.0000 </r>
       <r>   -0.9989    1.0000 </r>
       <r>   -0.8623    1.0000 </r>
       <r>   -0.8615    1.0000 </r>
       <r>   -0.5875    1.0000 </r>
       <r>   -0.5875    1.0000 </r>
       <r>   -0.4893    1.0000 </r>
       <r>   -0.4891    1.0000 </r>
       <r>   -0.4891    1.0000 </r>
       <r>   -0.4889    1.0000 </r>
       <r>   -0.3135    1.0000 </r>
       <r>   -0.3128    1.0000 </r>
       <r>   -0.3128    1.0000 </r>
       <r>   -0.3121    1.0000 </r>
       <r>    0.2643    1.0000 </r>
       <r>    0.2652    1.0000 </r>
       <r>    0.7358    1.0000 </r>
       <r>    0.7362    1.0000 </r>
       <r>    0.7363    1.0000 </r>
       <r>    0.7367    1.0000 </r>
       <r>    0.8141    1.0000 </r>
       <r>    0.9583    1.0000 </r>
       <r>    0.9583    1.0000 </r>
       <r>    0.9586    1.0000 </r>
       <r>    0.9587    1.0000 </r>
       <r>    0.9588    1.0000 </r>
       <r>    0.9761    1.0000 </r>
       <r>    0.9761    1.0000 </r>
       <r>    1.1452    1.0000 </r>
       <r>    1.1452    1.0000 </r>
       <r>    1.2446    1.0000 </r>
       <r>    1.2447    1.0000 </r>
       <r>    1.2449    1.0000 </r>
       <r>    1.2450    1.0000 </r>
       <r>    1.3427    1.0000 </r>
       <r>    1.4037    1.0000 </r>
       <r>    1.4037    1.0000 </r>
       <r>    1.4282    1.0000 </r>
       <r>    1.4284    1.0000 </r>
       <r>    1.4286    1.0000 </r>
       <r>    1.4288    1.0000 </r>
       <r>    1.4968    1.0000 </r>
       <r>    1.4969    1.0000 </r>
       <r>    1.4974    1.0000 </r>
       <r>    1.4975    1.0000 </r>
       <r>    1.5860    1.0000 </r>
       <r>    1.5860    1.0000 </r>
       <r>    1.9366    1.0000 </r>
       <r>    1.9366    1.0000 </r>
       <r>    1.9911    1.0000 </r>
       <r>    1.9911    1.0000 </r>
       <r>    2.0112    1.0000 </r>
       <r>    2.0112    1.0000 </r>
       <r>    2.0297    1.0000 </r>
       <r>    2.0304    1.0000 </r>
       <r>    2.1433    1.0000 </r>
       <r>    2.1436    1.0000 </r>
       <r>    2.1437    1.0000 </r>
       <r>    2.1439    1.0000 </r>
       <r>    2.1880    1.0000 </r>
       <r>    2.1880    1.0000 </r>
       <r>    2.2071    1.0000 </r>
       <r>    2.2075    1.0000 </r>
       <r>    2.2273    1.0000 </r>
       <r>    2.2273    1.0000 </r>
       <r>    2.2278    1.0000 </r>
       <r>    2.2278    1.0000 </r>
       <r>    2.2714    1.0000 </r>
       <r>    2.2714    1.0000 </r>
       <r>    2.3340    1.0000 </r>
       <r>    2.3340    1.0000 </r>
       <r>    2.3759    1.0000 </r>
       <r>    2.3759    1.0000 </r>
       <r>    2.3878    1.0000 </r>
       <r>    2.3878    1.0000 </r>
       <r>    2.4121    1.0000 </r>
       <r>    2.4348    1.0000 </r>
       <r>    2.4350    1.0000 </r>
       <r>    2.4353    1.0000 </r>
       <r>    2.4355    1.0000 </r>
       <r>    2.4956    1.0000 </r>
       <r>    2.4960    1.0000 </r>
       <r>    2.4962    1.0000 </r>
       <r>    2.4966    1.0000 </r>
       <r>    2.5167    1.0000 </r>
       <r>    2.5167    1.0000 </r>
       <r>    2.5929    1.0000 </r>
       <r>    2.5931    1.0000 </r>
       <r>    2.5934    1.0000 </r>
       <r>    2.5936    1.0000 </r>
       <r>    2.6747    1.0000 </r>
       <r>    2.6750    1.0000 </r>
       <r>    2.6750    1.0000 </r>
       <r>    2.6754    1.0000 </r>
       <r>    2.6850    1.0000 </r>
       <r>    2.6850    1.0000 </r>
       <r>    2.7079    1.0000 </r>
       <r>    2.8027    1.0000 </r>
       <r>    2.8037    1.0000 </r>
       <r>    2.8094    1.0000 </r>
       <r>    2.8095    1.0000 </r>
       <r>    2.9068    1.0000 </r>
       <r>    2.9069    1.0000 </r>
       <r>    2.9070    1.0000 </r>
       <r>    2.9070    1.0000 </r>
       <r>    2.9526    1.0000 </r>
       <r>    3.0158    1.0000 </r>
       <r>    3.0168    1.0000 </r>
       <r>    3.1078    1.0000 </r>
       <r>    3.1081    1.0000 </r>
       <r>    3.1084    1.0000 </r>
       <r>    3.1088    1.0000 </r>
       <r>    3.1561    1.0000 </r>
       <r>    3.1578    1.0000 </r>
       <r>    3.1583    1.0000 </r>
       <r>    3.1589    1.0000 </r>
       <r>    3.1590    1.0000 </r>
       <r>    3.1593    1.0000 </r>
       <r>    3.1600    1.0000 </r>
       <r>    3.3338    1.0000 </r>
       <r>    3.3340    1.0000 </r>
       <r>    3.3937    1.0000 </r>
       <r>    3.3946    1.0000 </r>
       <r>    3.4138    1.0000 </r>
       <r>    3.4138    1.0000 </r>
       <r>    3.4589    1.0000 </r>
       <r>    3.4591    1.0000 </r>
       <r>    3.4714    1.0000 </r>
       <r>    3.4715    1.0000 </r>
       <r>    3.4997    1.0000 </r>
       <r>    3.5000    1.0000 </r>
       <r>    3.5002    1.0000 </r>
       <r>    3.5006    1.0000 </r>
       <r>    3.6452    1.0000 </r>
       <r>    3.6455    1.0000 </r>
       <r>    3.7356    1.0000 </r>
       <r>    3.7362    1.0000 </r>
       <r>    3.7365    1.0000 </r>
       <r>    3.7371    1.0000 </r>
       <r>    4.0465    1.0000 </r>
       <r>    4.0467    1.0000 </r>
       <r>    4.0567    1.0000 </r>
       <r>    4.0572    1.0000 </r>
       <r>    4.0574    1.0000 </r>
       <r>    4.0579    1.0000 </r>
       <r>    4.2409    1.0000 </r>
       <r>    4.3035    1.0000 </r>
       <r>    4.3036    1.0000 </r>
       <r>    4.3334    1.0000 </r>
       <r>    4.3335    1.0000 </r>
       <r>    4.4236    1.0000 </r>
       <r>    4.4248    1.0000 </r>
       <r>    4.4901    1.0000 </r>
       <r>    4.9699    1.0000 </r>
       <r>    6.0214    0.0000 </r>
       <r>    6.0215    0.0000 </r>
       <r>    6.1070    0.0000 </r>
       <r>    6.3302    0.0000 </r>
       <r>    6.3302    0.0000 </r>
       <r>    6.4854    0.0000 </r>
       <r>    6.4854    0.0000 </r>
       <r>    6.6368    0.0000 </r>
       <r>    6.6374    0.0000 </r>
       <r>    6.6454    0.0000 </r>
       <r>    6.6455    0.0000 </r>
       <r>    6.6460    0.0000 </r>
       <r>    6.6460    0.0000 </r>
       <r>    6.6565    0.0000 </r>
       <r>    6.6570    0.0000 </r>
       <r>    6.6638    0.0000 </r>
       <r>    6.8695    0.0000 </r>
       <r>    6.8695    0.0000 </r>
       <r>    6.9489    0.0000 </r>
       <r>    6.9489    0.0000 </r>
       <r>    6.9982    0.0000 </r>
       <r>    6.9984    0.0000 </r>
       <r>    7.0438    0.0000 </r>
       <r>    7.0440    0.0000 </r>
       <r>    7.0607    0.0000 </r>
       <r>    7.0607    0.0000 </r>
       <r>    7.1795    0.0000 </r>
       <r>    7.1798    0.0000 </r>
       <r>    7.1802    0.0000 </r>
       <r>    7.1803    0.0000 </r>
       <r>    7.1829    0.0000 </r>
       <r>    7.1830    0.0000 </r>
       <r>    7.2074    0.0000 </r>
       <r>    7.2076    0.0000 </r>
       <r>    7.2079    0.0000 </r>
       <r>    7.2082    0.0000 </r>
       <r>    7.2312    0.0000 </r>
       <r>    7.2315    0.0000 </r>
       <r>    7.2318    0.0000 </r>
       <r>    7.2319    0.0000 </r>
       <r>    7.2323    0.0000 </r>
       <r>    7.2997    0.0000 </r>
       <r>    7.3001    0.0000 </r>
       <r>    7.3668    0.0000 </r>
       <r>    7.3671    0.0000 </r>
       <r>    7.3673    0.0000 </r>
       <r>    7.3676    0.0000 </r>
       <r>    7.3848    0.0000 </r>
       <r>    7.3848    0.0000 </r>
       <r>    7.5170    0.0000 </r>
       <r>    7.5171    0.0000 </r>
       <r>    7.5172    0.0000 </r>
       <r>    7.5172    0.0000 </r>
       <r>    7.5412    0.0000 </r>
       <r>    7.5480    0.0000 </r>
       <r>    7.5482    0.0000 </r>
       <r>    7.5485    0.0000 </r>
       <r>    7.5486    0.0000 </r>
       <r>    7.6242    0.0000 </r>
       <r>    7.6242    0.0000 </r>
       <r>    7.6827    0.0000 </r>
       <r>    7.7016    0.0000 </r>
       <r>    7.7021    0.0000 </r>
       <r>    7.7293    0.0000 </r>
       <r>    7.7293    0.0000 </r>
       <r>    7.7822    0.0000 </r>
       <r>    7.7823    0.0000 </r>
       <r>    7.7827    0.0000 </r>
       <r>    7.7827    0.0000 </r>
       <r>    7.8829    0.0000 </r>
       <r>    7.8988    0.0000 </r>
       <r>    7.8988    0.0000 </r>
       <r>    7.9488    0.0000 </r>
       <r>    7.9488    0.0000 </r>
       <r>    8.0218    0.0000 </r>
       <r>    8.1602    0.0000 </r>
       <r>    8.1605    0.0000 </r>
       <r>    8.1607    0.0000 </r>
       <r>    8.1610    0.0000 </r>
       <r>    8.2461    0.0000 </r>
       <r>    8.2462    0.0000 </r>
       <r>    8.2524    0.0000 </r>
       <r>    8.2527    0.0000 </r>
       <r>    8.2527    0.0000 </r>
       <r>    8.2532    0.0000 </r>
       <r>    8.3603    0.0000 </r>
       <r>    8.3603    0.0000 </r>
       <r>    8.4034    0.0000 </r>
       <r>    8.4035    0.0000 </r>
       <r>    8.4270    0.0000 </r>
       <r>    8.4273    0.0000 </r>
       <r>    8.4278    0.0000 </r>
       <r>    8.4279    0.0000 </r>
       <r>    8.4313    0.0000 </r>
       <r>    8.4320    0.0000 </r>
       <r>    8.4322    0.0000 </r>
       <r>    8.4331    0.0000 </r>
       <r>    8.4685    0.0000 </r>
       <r>    8.4689    0.0000 </r>
       <r>    8.6107    0.0000 </r>
       <r>    8.6113    0.0000 </r>
       <r>    8.6128    0.0000 </r>
       <r>    8.6168    0.0000 </r>
       <r>    8.6172    0.0000 </r>
       <r>    8.6174    0.0000 </r>
       <r>    8.6177    0.0000 </r>
       <r>    8.6191    0.0000 </r>
       <r>    8.6192    0.0000 </r>
       <r>    8.6737    0.0000 </r>
       <r>    8.6737    0.0000 </r>
       <r>    8.7512    0.0000 </r>
       <r>    8.7515    0.0000 </r>
       <r>    8.7778    0.0000 </r>
       <r>    8.7787    0.0000 </r>
       <r>    8.7995    0.0000 </r>
       <r>    8.7997    0.0000 </r>
       <r>    8.8004    0.0000 </r>
       <r>    8.8005    0.0000 </r>
       <r>    8.8133    0.0000 </r>
       <r>    8.8137    0.0000 </r>
       <r>    8.8139    0.0000 </r>
       <r>    8.8144    0.0000 </r>
       <r>    8.8283    0.0000 </r>
       <r>    8.8285    0.0000 </r>
       <r>    8.8735    0.0000 </r>
       <r>    8.9969    0.0000 </r>
       <r>    8.9987    0.0000 </r>
       <r>    9.1179    0.0000 </r>
      </set>
     </set>
    </set>
   </array>
  </eigenvalues>
  <separator name="orbital magnetization" >
   <v name="MAGDIPOLOUT">      0.00000000      0.00000000      0.00000000</v>
  </separator>
  <dos>
   <i name="efermi">      5.21639552 </i>
   <total>
    <array>
     <dimension dim="1">gridpoints</dimension>
     <dimension dim="2">spin</dimension>
     <field>energy</field>
     <field>total</field>
     <field>integrated</field>
     <set>
      <set comment="spin 1">
       <r>   -20.6632     0.0000     0.0000 </r>
       <r>   -20.5577     0.0000     0.0000 </r>
       <r>   -20.4522     0.0000     0.0000 </r>
       <r>   -20.3467     0.0000     0.0000 </r>
       <r>   -20.2411     0.0000     0.0000 </r>
       <r>   -20.1356     0.0000     0.0000 </r>
       <r>   -20.0301     0.0000     0.0000 </r>
       <r>   -19.9246     0.0000     0.0000 </r>
       <r>   -19.8190     0.0000     0.0000 </r>
       <r>   -19.7135     0.0000     0.0000 </r>
       <r>   -19.6080     0.0000     0.0000 </r>
       <r>   -19.5025     0.0000     0.0000 </r>
       <r>   -19.3969     0.0000     0.0000 </r>
       <r>   -19.2914     0.0000     0.0000 </r>
       <r>   -19.1859  5558.1081   586.5107 </r>
       <r>   -19.0804     0.0000   640.0000 </r>
       <r>   -18.9749     0.0000   640.0000 </r>
       <r>   -18.8693     0.0000   640.0000 </r>
       <r>   -18.7638     0.0000   640.0000 </r>
       <r>   -18.6583     0.0000   640.0000 </r>
       <r>   -18.5528     0.0000   640.0000 </r>
       <r>   -18.4472     0.0000   640.0000 </r>
       <r>   -18.3417     0.0000   640.0000 </r>
       <r>   -18.2362     0.0000   640.0000 </r>
       <r>   -18.1307     0.0000   640.0000 </r>
       <r>   -18.0251     0.0000   640.0000 </r>
       <r>   -17.9196     0.0000   640.0000 </r>
       <r>   -17.8141     0.0000   640.0000 </r>
       <r>   -17.7086     0.0000   640.0000 </r>
       <r>   -17.6030     0.0000   640.0000 </r>
       <r>   -17.4975     0.0000   640.0000 </r>
       <r>   -17.3920     0.0000   640.0000 </r>
       <r>   -17.2865     0.0000   640.0000 </r>
       <r>   -17.1810     0.0000   640.0000 </r>
       <r>   -17.0754     0.0000   640.0000 </r>
       <r>   -16.9699     0.0000   640.0000 </r>
       <r>   -16.8644     0.0000   640.0000 </r>
       <r>   -16.7589     0.0000   640.0000 </r>
       <r>   -16.6533     0.0000   640.0000 </r>
       <r>   -16.5478     0.0000   640.0000 </r>
       <r>   -16.4423     0.0000   640.0000 </r>
       <r>   -16.3368     0.0000   640.0000 </r>
       <r>   -16.2312     0.0000   640.0000 </r>
       <r>   -16.1257     0.0000   640.0000 </r>
       <r>   -16.0202     0.0000   640.0000 </r>
       <r>   -15.9147     0.0000   640.0000 </r>
       <r>   -15.8092     0.0000   640.0000 </r>
       <r>   -15.7036     0.0000   640.0000 </r>
       <r>   -15.5981     0.0000   640.0000 </r>
       <r>   -15.4926     0.0000   640.0000 </r>
       <r>   -15.3871     0.0000   640.0000 </r>
       <r>   -15.2815     0.0000   640.0000 </r>
       <r>   -15.1760     0.0000   640.0000 </r>
       <r>   -15.0705     0.0000   640.0000 </r>
       <r>   -14.9650     0.0000   640.0000 </r>
       <r>   -14.8594     0.0000   640.0000 </r>
       <r>   -14.7539     0.0000   640.0000 </r>
       <r>   -14.6484     0.0000   640.0000 </r>
       <r>   -14.5429     0.0000   640.0000 </r>
       <r>   -14.4373     0.0000   640.0000 </r>
       <r>   -14.3318     0.0000   640.0000 </r>
       <r>   -14.2263     0.0000   640.0000 </r>
       <r>   -14.1208     0.0000   640.0000 </r>
       <r>   -14.0153     0.0000   640.0000 </r>
       <r>   -13.9097     0.0000   640.0000 </r>
       <r>   -13.8042     0.0000   640.0000 </r>
       <r>   -13.6987     0.0000   640.0000 </r>
       <r>   -13.5932     0.0000   640.0000 </r>
       <r>   -13.4876     0.0000   640.0000 </r>
       <r>   -13.3821     0.0000   640.0000 </r>
       <r>   -13.2766     0.0000   640.0000 </r>
       <r>   -13.1711     0.0000   640.0000 </r>
       <r>   -13.0655     0.0000   640.0000 </r>
       <r>   -12.9600     0.0000   640.0000 </r>
       <r>   -12.8545     0.0000   640.0000 </r>
       <r>   -12.7490     0.0000   640.0000 </r>
       <r>   -12.6434     0.0000   640.0000 </r>
       <r>   -12.5379     0.0000   640.0000 </r>
       <r>   -12.4324     0.0000   640.0000 </r>
       <r>   -12.3269     0.0000   640.0000 </r>
       <r>   -12.2214     0.0000   640.0000 </r>
       <r>   -12.1158     0.0000   640.0000 </r>
       <r>   -12.0103     0.0000   640.0000 </r>
       <r>   -11.9048     0.0000   640.0000 </r>
       <r>   -11.7993     0.0000   640.0000 </r>
       <r>   -11.6937     0.0000   640.0000 </r>
       <r>   -11.5882     0.0000   640.0000 </r>
       <r>   -11.4827     0.0000   640.0000 </r>
       <r>   -11.3772     0.0000   640.0000 </r>
       <r>   -11.2716     0.0000   640.0000 </r>
       <r>   -11.1661     0.0000   640.0000 </r>
       <r>   -11.0606     0.0000   640.0000 </r>
       <r>   -10.9551     0.0000   640.0000 </r>
       <r>   -10.8495     0.0000   640.0000 </r>
       <r>   -10.7440     0.0000   640.0000 </r>
       <r>   -10.6385     0.0000   640.0000 </r>
       <r>   -10.5330     0.0000   640.0000 </r>
       <r>   -10.4275     0.0000   640.0000 </r>
       <r>   -10.3219     0.0000   640.0000 </r>
       <r>   -10.2164     0.0000   640.0000 </r>
       <r>   -10.1109     0.0000   640.0000 </r>
       <r>   -10.0054     0.0000   640.0000 </r>
       <r>    -9.8998     0.0000   640.0000 </r>
       <r>    -9.7943     0.0000   640.0000 </r>
       <r>    -9.6888     0.0000   640.0000 </r>
       <r>    -9.5833     0.0000   640.0000 </r>
       <r>    -9.4777     0.0000   640.0000 </r>
       <r>    -9.3722     0.0000   640.0000 </r>
       <r>    -9.2667     0.0000   640.0000 </r>
       <r>    -9.1612     0.0000   640.0000 </r>
       <r>    -9.0557     0.0000   640.0000 </r>
       <r>    -8.9501     0.0000   640.0000 </r>
       <r>    -8.8446     0.0000   640.0000 </r>
       <r>    -8.7391     0.0000   640.0000 </r>
       <r>    -8.6336     0.0000   640.0000 </r>
       <r>    -8.5280     0.0000   640.0000 </r>
       <r>    -8.4225     0.0000   640.0000 </r>
       <r>    -8.3170     0.0000   640.0000 </r>
       <r>    -8.2115     0.0000   640.0000 </r>
       <r>    -8.1059     0.0000   640.0000 </r>
       <r>    -8.0004     0.0000   640.0000 </r>
       <r>    -7.8949     0.0000   640.0000 </r>
       <r>    -7.7894     0.0000   640.0000 </r>
       <r>    -7.6838     0.0000   640.0000 </r>
       <r>    -7.5783     0.0000   640.0000 </r>
       <r>    -7.4728     0.0000   640.0000 </r>
       <r>    -7.3673     0.0000   640.0000 </r>
       <r>    -7.2618     0.0000   640.0000 </r>
       <r>    -7.1562     0.0000   640.0000 </r>
       <r>    -7.0507     0.7019   640.0741 </r>
       <r>    -6.9452     9.8162   641.1099 </r>
       <r>    -6.8397     8.1158   641.9675 </r>
       <r>    -6.7341    21.5612   644.2752 </r>
       <r>    -6.6286     1.4407   644.5224 </r>
       <r>    -6.5231    20.0982   646.9356 </r>
       <r>    -6.4176     2.5852   648.6432 </r>
       <r>    -6.3120    20.5568   652.3174 </r>
       <r>    -6.2065     0.3221   652.5525 </r>
       <r>    -6.1010    34.8071   657.0804 </r>
       <r>    -5.9955     4.2121   659.1852 </r>
       <r>    -5.8899    33.7170   662.7432 </r>
       <r>    -5.7844     5.6052   665.1100 </r>
       <r>    -5.6789    18.0250   667.0132 </r>
       <r>    -5.5734    32.0068   673.8219 </r>
       <r>    -5.4679    46.3326   678.8892 </r>
       <r>    -5.3623     1.7721   679.5203 </r>
       <r>    -5.2568    23.1607   683.5551 </r>
       <r>    -5.1513    27.6078   686.8392 </r>
       <r>    -5.0458    36.4374   693.9932 </r>
       <r>    -4.9402    23.4350   701.5100 </r>
       <r>    -4.8347     7.0440   706.4471 </r>
       <r>    -4.7292    17.4990   711.8466 </r>
       <r>    -4.6237    50.9221   718.9290 </r>
       <r>    -4.5181    33.7101   726.0016 </r>
       <r>    -4.4126    18.8328   731.5429 </r>
       <r>    -4.3071    24.3604   735.6817 </r>
       <r>    -4.2016    16.8473   738.8889 </r>
       <r>    -4.0960   109.4864   750.4423 </r>
       <r>    -3.9905     0.0000   750.4444 </r>
       <r>    -3.8850    31.9405   753.8149 </r>
       <r>    -3.7795    48.6076   759.1292 </r>
       <r>    -3.6740    50.5414   764.6666 </r>
       <r>    -3.5684     8.4591   765.5593 </r>
       <r>    -3.4629    20.8117   767.9740 </r>
       <r>    -3.3574     0.0000   768.0000 </r>
       <r>    -3.2519     0.0000   768.0000 </r>
       <r>    -3.1463     0.0000   768.0000 </r>
       <r>    -3.0408     0.0000   768.0000 </r>
       <r>    -2.9353     0.0000   768.0000 </r>
       <r>    -2.8298     0.0000   768.0000 </r>
       <r>    -2.7242     2.0615   768.2175 </r>
       <r>    -2.6187    15.2743   770.7229 </r>
       <r>    -2.5132     4.2118   771.3333 </r>
       <r>    -2.4077    16.9732   773.1244 </r>
       <r>    -2.3021    67.3906   782.0002 </r>
       <r>    -2.1966    16.9437   783.7881 </r>
       <r>    -2.0911     0.0007   785.5556 </r>
       <r>    -1.9856    93.4102   795.4126 </r>
       <r>    -1.8801    87.6526   806.6568 </r>
       <r>    -1.7745    21.0680   812.0750 </r>
       <r>    -1.6690    84.2361   822.7407 </r>
       <r>    -1.5635    17.5960   824.5975 </r>
       <r>    -1.4580    51.9454   832.2222 </r>
       <r>    -1.3524    33.5376   835.7612 </r>
       <r>    -1.2469    33.6927   839.3331 </r>
       <r>    -1.1414    50.5415   844.6667 </r>
       <r>    -1.0359     0.0000   844.6667 </r>
       <r>    -0.9303    50.3409   849.9788 </r>
       <r>    -0.8248    33.7037   853.5565 </r>
       <r>    -0.7193     8.4235   856.2222 </r>
       <r>    -0.6138     0.0017   856.2224 </r>
       <r>    -0.5083    16.9600   858.0121 </r>
       <r>    -0.4027     9.8267   862.5925 </r>
       <r>    -0.2972    33.2282   866.0989 </r>
       <r>    -0.1917     0.0000   866.1481 </r>
       <r>    -0.0862    16.8475   867.9260 </r>
       <r>     0.0194    33.6941   871.4815 </r>
       <r>     0.1249     0.0001   871.4815 </r>
       <r>     0.2304    16.8471   873.2593 </r>
       <r>     0.3359    16.8472   875.0370 </r>
       <r>     0.4415    16.8472   876.8148 </r>
       <r>     0.5470     0.0000   876.8148 </r>
       <r>     0.6525     0.0002   876.8148 </r>
       <r>     0.7580    50.5060   882.1444 </r>
       <r>     0.8636     8.5571   883.0511 </r>
       <r>     0.9691    41.9302   888.0542 </r>
       <r>     1.0746    54.7531   895.6296 </r>
       <r>     1.1801    67.3889   902.7407 </r>
       <r>     1.2856    84.2362   911.6296 </r>
       <r>     1.3912    33.1150   915.1240 </r>
       <r>     1.4967    58.2055   923.9939 </r>
       <r>     1.6022    94.7860   937.6318 </r>
       <r>     1.7077     6.6228   941.6618 </r>
       <r>     1.8133    16.3133   946.2400 </r>
       <r>     1.9188    67.4937   953.4185 </r>
       <r>     2.0243    70.7039   964.4239 </r>
       <r>     2.1298    34.4729   971.2673 </r>
       <r>     2.2354    98.6087   985.1463 </r>
       <r>     2.3409    55.1667   991.6732 </r>
       <r>     2.4464    79.5490  1000.4684 </r>
       <r>     2.5519   139.2685  1015.3628 </r>
       <r>     2.6575    36.5940  1020.9726 </r>
       <r>     2.7630    42.3880  1031.3619 </r>
       <r>     2.8685    63.0425  1039.7636 </r>
       <r>     2.9740   124.5395  1053.3641 </r>
       <r>     3.0795    50.5426  1058.8890 </r>
       <r>     3.1851   111.9062  1070.6977 </r>
       <r>     3.2906    31.7104  1076.4573 </r>
       <r>     3.3961    61.3250  1083.1379 </r>
       <r>     3.5016    77.1435  1097.2516 </r>
       <r>     3.6072    16.8472  1101.5556 </r>
       <r>     3.7127    67.5073  1108.6792 </r>
       <r>     3.8182    67.2403  1120.2065 </r>
       <r>     3.9237    19.6217  1122.8854 </r>
       <r>     4.0293    22.7159  1125.2860 </r>
       <r>     4.1348    67.1003  1135.7475 </r>
       <r>     4.2403     3.9415  1136.1937 </r>
       <r>     4.3458    44.2611  1141.3373 </r>
       <r>     4.4514    16.8461  1144.9628 </r>
       <r>     4.5569     8.4236  1145.8519 </r>
       <r>     4.6624    11.5069  1147.0661 </r>
       <r>     4.7679    16.8472  1149.7037 </r>
       <r>     4.8734     0.0000  1149.7037 </r>
       <r>     4.9790    18.7718  1151.6846 </r>
       <r>     5.0845     0.0003  1151.7778 </r>
       <r>     5.1900     1.4038  1152.0000 </r>
       <r>     5.2955     0.0000  1152.0000 </r>
       <r>     5.4011     0.0000  1152.0000 </r>
       <r>     5.5066     0.0000  1152.0000 </r>
       <r>     5.6121     0.0000  1152.0000 </r>
       <r>     5.7176     1.1921  1152.1258 </r>
       <r>     5.8232     2.1062  1152.6667 </r>
       <r>     5.9287    10.8854  1153.8154 </r>
       <r>     6.0342    16.2434  1157.4918 </r>
       <r>     6.1397    16.0939  1159.2538 </r>
       <r>     6.2452    21.0544  1161.4810 </r>
       <r>     6.3508    38.7296  1165.5684 </r>
       <r>     6.4563    26.6850  1168.7418 </r>
       <r>     6.5618    77.1826  1176.9594 </r>
       <r>     6.6673    97.3098  1187.9722 </r>
       <r>     6.7729    20.8187  1190.5672 </r>
       <r>     6.8784    96.1888  1203.1131 </r>
       <r>     6.9839    51.5931  1209.6665 </r>
       <r>     7.0894    50.5424  1220.2223 </r>
       <r>     7.1950    87.9506  1229.5032 </r>
       <r>     7.3005    84.8033  1243.8376 </r>
       <r>     7.4060    96.8548  1254.8871 </r>
       <r>     7.5115     9.3014  1257.6482 </r>
       <r>     7.6171    44.7478  1267.1664 </r>
       <r>     7.7226    36.2082  1272.7097 </r>
       <r>     7.8281    67.4196  1281.3366 </r>
       <r>     7.9336    42.3910  1288.7695 </r>
       <r>     8.0391    36.4539  1294.3653 </r>
       <r>     8.1447    71.9666  1303.4460 </r>
       <r>     8.2502    46.0684  1312.4169 </r>
       <r>     8.3557    58.7077  1321.7506 </r>
       <r>     8.4612   120.3721  1338.3317 </r>
       <r>     8.5668    34.5047  1343.4929 </r>
       <r>     8.6723   133.4741  1357.9365 </r>
       <r>     8.7778    69.8238  1367.5162 </r>
       <r>     8.8833    76.0870  1380.0290 </r>
       <r>     8.9889    77.7946  1389.9869 </r>
       <r>     9.0944    20.4291  1394.6002 </r>
       <r>     9.1999    29.5237  1402.2266 </r>
       <r>     9.3054     9.8275  1404.8889 </r>
       <r>     9.4110     4.0194  1405.3130 </r>
       <r>     9.5165    16.1448  1407.6296 </r>
       <r>     9.6220     2.8077  1408.0000 </r>
       <r>     9.7275     0.0000  1408.0000 </r>
       <r>     9.8330     0.0000  1408.0000 </r>
       <r>     9.9386     0.0000  1408.0000 </r>
       <r>    10.0441     0.0000  1408.0000 </r>
       <r>    10.1496     0.0000  1408.0000 </r>
       <r>    10.2551     0.0000  1408.0000 </r>
       <r>    10.3607     0.0000  1408.0000 </r>
       <r>    10.4662     0.0000  1408.0000 </r>
       <r>    10.5717     0.0000  1408.0000 </r>
       <r>    10.6772     0.0000  1408.0000 </r>
       <r>    10.7828     0.0000  1408.0000 </r>
       <r>    10.8883     0.0000  1408.0000 </r>
       <r>    10.9938     0.0000  1408.0000 </r>
      </set>
     </set>
    </array>
   </total>
  </dos>
 </calculation>
 <structure name="finalpos" >
  <crystal>
   <varray name="basis" >
    <v>      -0.00000000      11.19540607      11.19540607 </v>
    <v>      11.19540607      -0.00000000      11.19540607 </v>
    <v>      11.19540607      11.19540607       0.00000000 </v>
   </varray>
   <i name="volume">   2806.39984618 </i>
   <varray name="rec_basis" >
    <v>      -0.04466118       0.04466118       0.04466118 </v>
    <v>       0.04466118      -0.04466118       0.04466118 </v>
    <v>       0.04466118       0.04466118      -0.04466118 </v>
   </varray>
  </crystal>
  <varray name="positions" >
   <v>       0.00063160       0.00000000       0.00000000 </v>
   <v>       0.25000000       0.00000000       0.00000000 </v>
   <v>       0.50000000       0.00000000       0.00000000 </v>
   <v>       0.75000000       0.00000000       0.00000000 </v>
   <v>       0.00000000       0.25000000       0.00000000 </v>
   <v>       0.25000000       0.25000000       0.00000000 </v>
   <v>       0.50000000       0.25000000       0.00000000 </v>
   <v>       0.75000000       0.25000000       0.00000000 </v>
   <v>       0.00000000       0.50000000       0.00000000 </v>
   <v>       0.25000000       0.50000000       0.00000000 </v>
   <v>       0.50000000       0.50000000       0.00000000 </v>
   <v>       0.75000000       0.50000000       0.00000000 </v>
   <v>       0.00000000       0.75000000       0.00000000 </v>
   <v>       0.25000000       0.75000000       0.00000000 </v>
   <v>       0.50000000       0.75000000       0.00000000 </v>
   <v>       0.75000000       0.75000000       0.00000000 </v>
   <v>       0.00000000       0.00000000       0.25000000 </v>
   <v>       0.25000000       0.00000000       0.25000000 </v>
   <v>       0.50000000       0.00000000       0.25000000 </v>
   <v>       0.75000000       0.00000000       0.25000000 </v>
   <v>       0.00000000       0.25000000       0.25000000 </v>
   <v>       0.25000000       0.25000000       0.25000000 </v>
   <v>       0.50000000       0.25000000       0.25000000 </v>
   <v>       0.75000000       0.25000000       0.25000000 </v>
   <v>       0.00000000       0.50000000       0.25000000 </v>
   <v>       0.25000000       0.50000000       0.25000000 </v>
   <v>       0.50000000       0.50000000       0.25000000 </v>
   <v>       0.75000000       0.50000000       0.25000000 </v>
   <v>       0.00000000       0.75000000       0.25000000 </v>
   <v>       0.25000000       0.75000000       0.25000000 </v>
   <v>       0.50000000       0.75000000       0.25000000 </v>
   <v>       0.75000000       0.75000000       0.25000000 </v>
   <v>       0.00000000       0.00000000       0.50000000 </v>
   <v>       0.25000000       0.00000000       0.50000000 </v>
   <v>       0.50000000       0.00000000       0.50000000 </v>
   <v>       0.75000000       0.00000000       0.50000000 </v>
   <v>       0.00000000       0.25000000       0.50000000 </v>
   <v>       0.25000000       0.25000000       0.50000000 </v>
   <v>       0.50000000       0.25000000       0.50000000 </v>
   <v>       0.75000000       0.25000000       0.50000000 </v>
   <v>       0.00000000       0.50000000       0.50000000 </v>
   <v>       0.25000000       0.50000000       0.50000000 </v>
   <v>       0.50000000       0.50000000       0.50000000 </v>
   <v>       0.75000000       0.50000000       0.50000000 </v>
   <v>       0.00000000       0.75000000       0.50000000 </v>
   <v>       0.25000000       0.75000000       0.50000000 </v>
   <v>       0.50000000       0.75000000       0.50000000 </v>
   <v>       0.75000000       0.75000000       0.50000000 </v>
   <v>       0.00000000       0.00000000       0.75000000 </v>
   <v>       0.25000000       0.00000000       0.75000000 </v>
   <v>       0.50000000       0.00000000       0.75000000 </v>
   <v>       0.75000000       0.00000000       0.75000000 </v>
   <v>       0.00000000       0.25000000       0.75000000 </v>
   <v>       0.25000000       0.25000000       0.75000000 </v>
   <v>       0.50000000       0.25000000       0.75000000 </v>
   <v>       0.75000000       0.25000000       0.75000000 </v>
   <v>       0.00000000       0.50000000       0.75000000 </v>
   <v>       0.25000000       0.50000000       0.75000000 </v>
   <v>       0.50000000       0.50000000       0.75000000 </v>
   <v>       0.75000000       0.50000000       0.75000000 </v>
   <v>       0.00000000       0.75000000       0.75000000 </v>
   <v>       0.25000000       0.75000000       0.75000000 </v>
   <v>       0.50000000       0.75000000       0.75000000 </v>
   <v>       0.75000000       0.75000000       0.75000000 </v>
   <v>       0.18750000       0.18750000       0.18750000 </v>
   <v>       0.43750000       0.18750000       0.18750000 </v>
   <v>       0.68750000       0.18750000       0.18750000 </v>
   <v>       0.93750000       0.18750000       0.18750000 </v>
   <v>       0.18750000       0.43750000       0.18750000 </v>
   <v>       0.43750000       0.43750000       0.18750000 </v>
   <v>       0.68750000       0.43750000       0.18750000 </v>
   <v>       0.93750000       0.43750000       0.18750000 </v>
   <v>       0.18750000       0.68750000       0.18750000 </v>
   <v>       0.43750000       0.68750000       0.18750000 </v>
   <v>       0.68750000       0.68750000       0.18750000 </v>
   <v>       0.93750000       0.68750000       0.18750000 </v>
   <v>       0.18750000       0.93750000       0.18750000 </v>
   <v>       0.43750000       0.93750000       0.18750000 </v>
   <v>       0.68750000       0.93750000       0.18750000 </v>
   <v>       0.93750000       0.93750000       0.18750000 </v>
   <v>       0.18750000       0.18750000       0.43750000 </v>
   <v>       0.43750000       0.18750000       0.43750000 </v>
   <v>       0.68750000       0.18750000       0.43750000 </v>
   <v>       0.93750000       0.18750000       0.43750000 </v>
   <v>       0.18750000       0.43750000       0.43750000 </v>
   <v>       0.43750000       0.43750000       0.43750000 </v>
   <v>       0.68750000       0.43750000       0.43750000 </v>
   <v>       0.93750000       0.43750000       0.43750000 </v>
   <v>       0.18750000       0.68750000       0.43750000 </v>
   <v>       0.43750000       0.68750000       0.43750000 </v>
   <v>       0.68750000       0.68750000       0.43750000 </v>
   <v>       0.93750000       0.68750000       0.43750000 </v>
   <v>       0.18750000       0.93750000       0.43750000 </v>
   <v>       0.43750000       0.93750000       0.43750000 </v>
   <v>       0.68750000       0.93750000       0.43750000 </v>
   <v>       0.93750000       0.93750000       0.43750000 </v>
   <v>       0.18750000       0.18750000       0.68750000 </v>
   <v>       0.43750000       0.18750000       0.68750000 </v>
   <v>       0.68750000       0.18750000       0.68750000 </v>
   <v>       0.93750000       0.18750000       0.68750000 </v>
   <v>       0.18750000       0.43750000       0.68750000 </v>
   <v>       0.43750000       0.43750000       0.68750000 </v>
   <v>       0.68750000       0.43750000       0.68750000 </v>
   <v>       0.93750000       0.43750000       0.68750000 </v>
   <v>       0.18750000       0.68750000       0.68750000 </v>
   <v>       0.43750000       0.68750000       0.68750000 </v>
   <v>       0.68750000       0.68750000       0.68750000 </v>
   <v>       0.93750000       0.68750000       0.68750000 </v>
   <v>       0.18750000       0.93750000       0.68750000 </v>
   <v>       0.43750000       0.93750000       0.68750000 </v>
   <v>       0.68750000       0.93750000       0.68750000 </v>
   <v>       0.93750000       0.93750000       0.68750000 </v>
   <v>       0.18750000       0.18750000       0.93750000 </v>
   <v>       0.43750000       0.18750000       0.93750000 </v>
   <v>       0.68750000       0.18750000       0.93750000 </v>
   <v>       0.93750000       0.18750000       0.93750000 </v>
   <v>       0.18750000       0.43750000       0.93750000 </v>
   <v>       0.43750000       0.43750000       0.93750000 </v>
   <v>       0.68750000       0.43750000       0.93750000 </v>
   <v>       0.93750000       0.43750000       0.93750000 </v>
   <v>       0.18750000       0.68750000       0.93750000 </v>
   <v>       0.43750000       0.68750000       0.93750000 </v>
   <v>       0.68750000       0.68750000       0.93750000 </v>
   <v>       0.93750000       0.68750000       0.93750000 </v>
   <v>       0.18750000       0.93750000       0.93750000 </v>
   <v>       0.43750000       0.93750000       0.93750000 </v>
   <v>       0.68750000       0.93750000       0.93750000 </v>
   <v>       0.93750000       0.93750000       0.93750000 </v>
  </varray>
 </structure>
</modeling>
