Nb N 
 1.0000000000000000
     4.4223869130000004   -0.0000000000000000    0.0000000000000000
     0.0000000000000000    4.4223869130000004    0.0000000000000000
    -0.0000000000000000   -0.0000000000000000    4.4223869130000004
 Nb  N  
   4   4
Cartesian
  1.0291182363343485  3.3932686766656519  1.0291182363343485
  3.3932686766656519  1.0291182363343485  1.0291182363343485
  3.3932686766656519  3.3932686766656519  3.3932686766656519
  1.0291182363343485  1.0291182363343485  3.3932686766656519
  3.2499711835428280  1.1724157294571722  3.2499711835428280
  1.1724157294571722  3.2499711835428280  3.2499711835428280
  1.1724157294571722  1.1724157294571722  1.1724157294571722
  3.2499711835428280  3.2499711835428280  1.1724157294571722
