
     Program PWSCF v.7.5 starts on  6Jun2026 at 14:55: 8 

     This program is part of the open-source Quantum ESPRESSO suite
     for quantum simulation of materials; please cite
         "P. Giannozzi et al., J. Phys.:Condens. Matter 21 395502 (2009);
         "P. Giannozzi et al., J. Phys.:Condens. Matter 29 465901 (2017);
         "P. Giannozzi et al., J. Chem. Phys. 152 154105 (2020);
          URL http://www.quantum-espresso.org", 
     in publications or presentations arising from this work. More details at
     http://www.quantum-espresso.org/quote

     Parallel version (MPI), running on  2048 processors

     MPI processes distributed on    16 nodes
     486720 MiB available memory on the printing compute node when the environment starts
 
     Reading input from scf.in

     Current dimensions of program PWSCF are:
     Max number of different atomic species (ntypx) = 10
     Max number of k-points (npk) =  40000
     Max angular momentum in pseudopotentials (lmaxx) =  4
     Message from routine setup:
     using ibrav=0 with symmetry is DISCOURAGED, use correct ibrav instead
 
     K-points division:     npool     =     128
     R & G space division:  proc/nbgrp/npool/nimage =      16
     Subspace diagonalization in iterative solution of the eigenvalue problem:
     a serial algorithm will be used

 
     Parallelization info
     --------------------
     sticks:   dense  smooth     PW     G-vecs:    dense   smooth      PW
     Min         139     139     39                 4933     4933     739
     Max         140     140     41                 4936     4936     741
     Sum        2225    2225    633                78949    78949   11837
 
     Using Slab Decomposition
 


     bravais-lattice index     =            0
     lattice parameter (alat)  =       8.3571  a.u.
     unit-cell volume          =     583.6692 (a.u.)^3
     number of atoms/cell      =            8
     number of atomic types    =            2
     number of electrons       =        72.00
     number of Kohn-Sham states=           43
     kinetic-energy cutoff     =     100.0000  Ry
     charge density cutoff     =     400.0000  Ry
     scf convergence threshold =      1.0E-11
     mixing beta               =       0.3000
     number of iterations used =            8  plain     mixing
     Exchange-correlation= PBE
                           (   1   4   3   4   0   0   0)

     celldm(1)=   8.357100  celldm(2)=   0.000000  celldm(3)=   0.000000
     celldm(4)=   0.000000  celldm(5)=   0.000000  celldm(6)=   0.000000

     crystal axes: (cart. coord. in units of alat)
               a(1) = (   1.000000   0.000000   0.000000 )  
               a(2) = (   0.000000   1.000000   0.000000 )  
               a(3) = (   0.000000   0.000000   1.000000 )  

     reciprocal axes: (cart. coord. in units 2 pi/alat)
               b(1) = (  1.000000  0.000000  0.000000 )  
               b(2) = (  0.000000  1.000000  0.000000 )  
               b(3) = (  0.000000  0.000000  1.000000 )  


     PseudoPot. # 1 for Nb read from file:
     /pscratch/sd/m/mhussien/NbN/2025/All_data/bulk-press-epi/pristine/June_06/pseudo/Nb_pbe.upf
     MD5 check sum: 712dd6877a67fb2d3f70e8edbadf3134
     Pseudo is Norm-conserving + core correction, Zval = 13.0
     Generated using ONCVPSP code by D. R. Hamann
     Using radial grid of 1680 points,  6 beta functions with: 
                l(1) =   0
                l(2) =   0
                l(3) =   1
                l(4) =   1
                l(5) =   2
                l(6) =   2

     PseudoPot. # 2 for N  read from file:
     /pscratch/sd/m/mhussien/NbN/2025/All_data/bulk-press-epi/pristine/June_06/pseudo/N_pbe.upf
     MD5 check sum: d34365f73bb0e2ee98afc20ec3e87676
     Pseudo is Norm-conserving + core correction, Zval =  5.0
     Generated using ONCVPSP code by D. R. Hamann
     Using radial grid of 1058 points,  4 beta functions with: 
                l(1) =   0
                l(2) =   0
                l(3) =   1
                l(4) =   1

     atomic species   valence    mass     pseudopotential
     Nb               13.00    92.91000     Nb( 1.00)
     N                 5.00    14.01000     N ( 1.00)

     24 Sym. Ops. (no inversion) found



   Cartesian axes

     site n.     atom                  positions (alat units)
         1        Nb     tau(   1) = (   0.2327065   0.7672935   0.2327065  )
         2        Nb     tau(   2) = (   0.7672935   0.2327065   0.2327065  )
         3        Nb     tau(   3) = (   0.7672935   0.7672935   0.7672935  )
         4        Nb     tau(   4) = (   0.2327065   0.2327065   0.7672935  )
         5        N      tau(   5) = (   0.7348907   0.2651093   0.7348907  )
         6        N      tau(   6) = (   0.2651093   0.7348907   0.7348907  )
         7        N      tau(   7) = (   0.2651093   0.2651093   0.2651093  )
         8        N      tau(   8) = (   0.7348907   0.7348907   0.2651093  )

     number of k points=   220  Marzari-Vanderbilt smearing, width (Ry)=  0.0050

     Number of k-points >= 100: set verbosity='high' to print them.

     Dense  grid:    78949 G-vectors     FFT dimensions: (  54,  54,  54)

     Estimated max dynamical RAM per process >      10.43 MB

     Estimated total dynamical RAM >      18.46 GB

     Initial potential from superposition of free atoms

     starting charge      71.9907, renormalised to      72.0000
     Starting wfcs are   56 randomized atomic wfcs

     total cpu time spent up to now is        1.0 secs

     Self-consistent Calculation

     iteration #  1     ecut=   100.00 Ry     beta= 0.30
     Davidson diagonalization with overlap
     ethr =  1.00E-02,  avg # of iterations =  2.0

     total cpu time spent up to now is        1.4 secs

     total energy              =    -581.21347526 Ry
     estimated scf accuracy    <       3.65328520 Ry

     iteration #  2     ecut=   100.00 Ry     beta= 0.30
     Davidson diagonalization with overlap
     ethr =  5.07E-03,  avg # of iterations =  2.0

     total cpu time spent up to now is        1.6 secs

     total energy              =    -581.80708098 Ry
     estimated scf accuracy    <       0.12646401 Ry

     iteration #  3     ecut=   100.00 Ry     beta= 0.30
     Davidson diagonalization with overlap
     ethr =  1.76E-04,  avg # of iterations =  6.4

     total cpu time spent up to now is        1.9 secs

     total energy              =    -581.83963093 Ry
     estimated scf accuracy    <       0.10540813 Ry

     iteration #  4     ecut=   100.00 Ry     beta= 0.30
     Davidson diagonalization with overlap
     ethr =  1.46E-04,  avg # of iterations =  3.9

     total cpu time spent up to now is        2.1 secs

     total energy              =    -581.84812596 Ry
     estimated scf accuracy    <       0.08534645 Ry

     iteration #  5     ecut=   100.00 Ry     beta= 0.30
     Davidson diagonalization with overlap
     ethr =  1.19E-04,  avg # of iterations =  4.1

     total cpu time spent up to now is        2.4 secs

     total energy              =    -581.87807266 Ry
     estimated scf accuracy    <       0.01856420 Ry

     iteration #  6     ecut=   100.00 Ry     beta= 0.30
     Davidson diagonalization with overlap
     ethr =  2.58E-05,  avg # of iterations =  5.4

     total cpu time spent up to now is        2.6 secs

     total energy              =    -581.87163652 Ry
     estimated scf accuracy    <       0.01600970 Ry

     iteration #  7     ecut=   100.00 Ry     beta= 0.30
     Davidson diagonalization with overlap
     ethr =  2.22E-05,  avg # of iterations =  2.9

     total cpu time spent up to now is        2.8 secs

     total energy              =    -581.87458969 Ry
     estimated scf accuracy    <       0.00008466 Ry

     iteration #  8     ecut=   100.00 Ry     beta= 0.30
     Davidson diagonalization with overlap
     c_bands:  1 eigenvalues not converged
     ethr =  1.18E-07,  avg # of iterations = 12.9

     total cpu time spent up to now is        3.2 secs

     total energy              =    -581.87476999 Ry
     estimated scf accuracy    <       0.00004453 Ry

     iteration #  9     ecut=   100.00 Ry     beta= 0.30
     Davidson diagonalization with overlap
     ethr =  6.18E-08,  avg # of iterations =  2.7

     total cpu time spent up to now is        3.5 secs

     total energy              =    -581.87474342 Ry
     estimated scf accuracy    <       0.00004909 Ry

     iteration # 10     ecut=   100.00 Ry     beta= 0.30
     Davidson diagonalization with overlap
     ethr =  6.18E-08,  avg # of iterations =  3.3

     total cpu time spent up to now is        3.7 secs

     total energy              =    -581.87475858 Ry
     estimated scf accuracy    <       0.00000699 Ry

     iteration # 11     ecut=   100.00 Ry     beta= 0.30
     Davidson diagonalization with overlap
     ethr =  9.71E-09,  avg # of iterations =  2.0

     total cpu time spent up to now is        3.9 secs

     total energy              =    -581.87475850 Ry
     estimated scf accuracy    <       0.00000179 Ry

     iteration # 12     ecut=   100.00 Ry     beta= 0.30
     Davidson diagonalization with overlap
     ethr =  2.48E-09,  avg # of iterations =  3.9

     total cpu time spent up to now is        4.1 secs

     total energy              =    -581.87475891 Ry
     estimated scf accuracy    <          5.8E-09 Ry

     iteration # 13     ecut=   100.00 Ry     beta= 0.30
     Davidson diagonalization with overlap
     ethr =  7.99E-12,  avg # of iterations =  7.6

     total cpu time spent up to now is        4.4 secs

     total energy              =    -581.87475893 Ry
     estimated scf accuracy    <          8.7E-10 Ry

     iteration # 14     ecut=   100.00 Ry     beta= 0.30
     Davidson diagonalization with overlap
     ethr =  1.21E-12,  avg # of iterations =  5.1

     total cpu time spent up to now is        4.7 secs

     total energy              =    -581.87475893 Ry
     estimated scf accuracy    <          7.5E-09 Ry

     iteration # 15     ecut=   100.00 Ry     beta= 0.30
     Davidson diagonalization with overlap
     ethr =  1.21E-12,  avg # of iterations =  4.0

     total cpu time spent up to now is        4.9 secs

     total energy              =    -581.87475893 Ry
     estimated scf accuracy    <          1.6E-09 Ry

     iteration # 16     ecut=   100.00 Ry     beta= 0.30
     Davidson diagonalization with overlap
     ethr =  1.21E-12,  avg # of iterations =  4.3

     total cpu time spent up to now is        5.1 secs

     total energy              =    -581.87475893 Ry
     estimated scf accuracy    <          5.6E-11 Ry

     iteration # 17     ecut=   100.00 Ry     beta= 0.30
     Davidson diagonalization with overlap
     ethr =  1.00E-13,  avg # of iterations =  2.9

     total cpu time spent up to now is        5.4 secs

     End of self-consistent calculation

     Number of k-points >= 100: set verbosity='high' to print the bands.

     the Fermi energy is    19.9997 ev

!    total energy              =    -581.87475893 Ry
     estimated scf accuracy    <          5.0E-12 Ry
     smearing contrib. (-TS)   =       0.00000266 Ry
     internal energy E=F+TS    =    -581.87476159 Ry

     The total energy is F=E-TS. E is the sum of the following terms:
     one-electron contribution =     -21.85635263 Ry
     hartree contribution      =      62.15891313 Ry
     xc contribution           =    -129.32830002 Ry
     ewald contribution        =    -492.84902207 Ry

     convergence has been achieved in  17 iterations

     Writing all to output data dir ./nbn.save/ :
     XML data file, charge density, pseudopotentials, collected wavefunctions
 
     init_run     :      0.16s CPU      0.52s WALL (       1 calls)
     electrons    :      4.14s CPU      4.44s WALL (       1 calls)

     Called by init_run:
     wfcinit      :      0.06s CPU      0.20s WALL (       1 calls)
     potinit      :      0.02s CPU      0.04s WALL (       1 calls)
     hinit0       :      0.01s CPU      0.20s WALL (       1 calls)

     Called by electrons:
     c_bands      :      3.49s CPU      3.57s WALL (      17 calls)
     sum_band     :      0.43s CPU      0.44s WALL (      17 calls)
     v_of_rho     :      0.11s CPU      0.12s WALL (      18 calls)
     mix_rho      :      0.02s CPU      0.03s WALL (      17 calls)

     Called by c_bands:
     init_us_2    :      0.03s CPU      0.04s WALL (      70 calls)
     cegterg      :      2.22s CPU      2.29s WALL (      34 calls)

     Called by *egterg:
     cdiaghg      :      0.31s CPU      0.38s WALL (     160 calls)
     h_psi        :      1.65s CPU      1.77s WALL (     162 calls)
     g_psi        :      0.00s CPU      0.01s WALL (     126 calls)

     Called by h_psi:
     h_psi:calbec :      0.13s CPU      0.19s WALL (     162 calls)
     vloc_psi     :      1.40s CPU      1.45s WALL (     162 calls)
                                        0.00s GPU  (     162 calls)
     add_vuspsi   :      0.10s CPU      0.11s WALL (     162 calls)

     General routines
     calbec       :      0.13s CPU      0.19s WALL (     162 calls)
     fft          :      0.08s CPU      0.26s WALL (     180 calls)
     ffts         :      0.01s CPU      0.01s WALL (      17 calls)
     fftw         :      1.57s CPU      1.63s WALL (    9420 calls)
 
     Parallel routines
 
     PWSCF        :      4.55s CPU      5.61s WALL

 
   This run was terminated on:  14:55:13   6Jun2026            

=------------------------------------------------------------------------------=
   JOB DONE.
=------------------------------------------------------------------------------=
