Si2                                     
   1.00000000000000     
    -0.0000000000000002    2.7343700037386172    2.7343700037386172
     2.7343700037386172   -0.0000000000000000    2.7343700037386172
     2.7343700037386172    2.7343700037386172    0.0000000000000003
   Si
     2
Direct
  0.2500000000000000  0.2500000000000000  0.2500000000000000
  0.0000000000000000  0.0000000000000000  0.0000000000000000
 
  0.00000000E+00  0.00000000E+00  0.00000000E+00
  0.00000000E+00  0.00000000E+00  0.00000000E+00
