Si16 Ge16                               
   1.00000000000000     
     0.0000000000000000   11.1999607893860844    0.0001044900460267
     5.6014029903099329    0.0000000000000000    0.0000000000000000
     0.0000000000000000   -0.0012855885874039  -11.2016732252066351
   Si   Ge
    16    16
Direct
  0.6227175741583564  0.9943451672631001  0.9979642231114163
  0.1271850846063765  0.0056441246882697  0.0019658783168512
  0.3772824258416436  0.4943451672631001  0.0020357768885837
  0.8728149153936238  0.5056441246882698  0.9980341216831419
  0.3726470996825600  0.9940985517077736  0.2449270654665971
  0.8772040050172553  0.0059011108901969  0.2497160780063940
  0.6273529003174395  0.4940985517077733  0.7550729345334031
  0.1227959949827450  0.5059011108901968  0.7502839219936062
  0.4966358149773004  0.7535661229105733  0.1208798793365944
  0.0009715308126592  0.7458182667818146  0.6266368436672785
  0.5033641850226999  0.2535661229105730  0.8791201206634055
  0.9990284691873410  0.2458182667818147  0.3733631563327213
  0.2508194185448961  0.7539699989640453  0.3706577138564672
  0.7467836616816164  0.7455991576048916  0.8769113943919369
  0.2532163383183839  0.2455991576048920  0.1230886056080559
  0.7491805814551037  0.2539699989640453  0.6293422861435327
  0.6271772992451357  0.0061504866876097  0.5024750145189002
  0.1227032340683165  0.9938451562649602  0.4974455746775719
  0.3728227007548643  0.5061504866876099  0.4975249854811001
  0.8772967659316838  0.4938451562649601  0.5025544253224280
  0.3771635357052349  0.0058987544820783  0.7545907918940956
  0.8727716041849912  0.9940721491973818  0.7503758152605149
  0.6228364642947655  0.5058987544820782  0.2454092081058975
  0.1272283958150086  0.4940721491973818  0.2496241847394848
  0.5034391721957495  0.7453980196316248  0.6291565340806347
  0.9990662793298123  0.7550186798181507  0.1233348179703512
  0.4965608278042504  0.2453980196316247  0.3708434659193653
  0.0009337206701878  0.2550186798181510  0.8766651820296489
  0.2489652282818133  0.7459115540225083  0.8789556860730590
  0.7535352261125103  0.7547606990850262  0.3736159464941943
  0.2464647738874897  0.2547606990850261  0.6263840535058055
  0.7510347717181868  0.2459115540225082  0.1210443139269410
 
  0.00000000E+00  0.00000000E+00  0.00000000E+00
  0.00000000E+00  0.00000000E+00  0.00000000E+00
  0.00000000E+00  0.00000000E+00  0.00000000E+00
  0.00000000E+00  0.00000000E+00  0.00000000E+00
  0.00000000E+00  0.00000000E+00  0.00000000E+00
  0.00000000E+00  0.00000000E+00  0.00000000E+00
  0.00000000E+00  0.00000000E+00  0.00000000E+00
  0.00000000E+00  0.00000000E+00  0.00000000E+00
  0.00000000E+00  0.00000000E+00  0.00000000E+00
  0.00000000E+00  0.00000000E+00  0.00000000E+00
  0.00000000E+00  0.00000000E+00  0.00000000E+00
  0.00000000E+00  0.00000000E+00  0.00000000E+00
  0.00000000E+00  0.00000000E+00  0.00000000E+00
  0.00000000E+00  0.00000000E+00  0.00000000E+00
  0.00000000E+00  0.00000000E+00  0.00000000E+00
  0.00000000E+00  0.00000000E+00  0.00000000E+00
  0.00000000E+00  0.00000000E+00  0.00000000E+00
  0.00000000E+00  0.00000000E+00  0.00000000E+00
  0.00000000E+00  0.00000000E+00  0.00000000E+00
  0.00000000E+00  0.00000000E+00  0.00000000E+00
  0.00000000E+00  0.00000000E+00  0.00000000E+00
  0.00000000E+00  0.00000000E+00  0.00000000E+00
  0.00000000E+00  0.00000000E+00  0.00000000E+00
  0.00000000E+00  0.00000000E+00  0.00000000E+00
  0.00000000E+00  0.00000000E+00  0.00000000E+00
  0.00000000E+00  0.00000000E+00  0.00000000E+00
  0.00000000E+00  0.00000000E+00  0.00000000E+00
  0.00000000E+00  0.00000000E+00  0.00000000E+00
  0.00000000E+00  0.00000000E+00  0.00000000E+00
  0.00000000E+00  0.00000000E+00  0.00000000E+00
  0.00000000E+00  0.00000000E+00  0.00000000E+00
  0.00000000E+00  0.00000000E+00  0.00000000E+00
