Si2 Ge2                                 
   1.00000000000000     
     1.9703856903986305   -3.4128081262771075    0.0000000000000000
     1.9703856903986305    3.4128081262771079   -0.0000000000000000
     0.0000000000000000   -0.0000000000000000    6.5120159454496678
   Si   Ge
     2     2
Direct
  0.6666666666666643  0.3333333333333357  0.8745260200860817
  0.3333333333333357  0.6666666666666643  0.3745260200860818
  0.6666666666666643  0.3333333333333357  0.5004729799139137
  0.3333333333333357  0.6666666666666643  0.0004729799139138
 
  0.00000000E+00  0.00000000E+00  0.00000000E+00
  0.00000000E+00  0.00000000E+00  0.00000000E+00
  0.00000000E+00  0.00000000E+00  0.00000000E+00
  0.00000000E+00  0.00000000E+00  0.00000000E+00
