generated by phonopy
   1.0
     7.8815427615945222  -13.6512325051084300    0.0000000000000000
     7.8815427615945222   13.6512325051084318    0.0000000000000000
     0.0000000000000000    0.0000000000000000   26.0480637817986711
Si Ge
 128  128
Direct
  0.1669951139239990  0.0833333333333339  0.2189599522788533
  0.4166666666666661  0.0833333333333339  0.2186315050215204
  0.6666666666666661  0.0833333333333339  0.2186315050215204
  0.9166666666666662  0.0833333333333338  0.2186315050215204
  0.1666666666666661  0.3333333333333339  0.2186315050215204
  0.4166666666666662  0.3333333333333339  0.2186315050215204
  0.6666666666666662  0.3333333333333339  0.2186315050215204
  0.9166666666666662  0.3333333333333339  0.2186315050215204
  0.1666666666666662  0.5833333333333339  0.2186315050215204
  0.4166666666666662  0.5833333333333339  0.2186315050215204
  0.6666666666666662  0.5833333333333339  0.2186315050215204
  0.9166666666666663  0.5833333333333339  0.2186315050215204
  0.1666666666666662  0.8333333333333339  0.2186315050215204
  0.4166666666666662  0.8333333333333339  0.2186315050215204
  0.6666666666666662  0.8333333333333339  0.2186315050215204
  0.9166666666666662  0.8333333333333338  0.2186315050215204
  0.1666666666666661  0.0833333333333339  0.4686315050215204
  0.4166666666666661  0.0833333333333339  0.4686315050215204
  0.6666666666666661  0.0833333333333339  0.4686315050215204
  0.9166666666666662  0.0833333333333338  0.4686315050215204
  0.1666666666666661  0.3333333333333339  0.4686315050215204
  0.4166666666666662  0.3333333333333339  0.4686315050215204
  0.6666666666666662  0.3333333333333339  0.4686315050215204
  0.9166666666666662  0.3333333333333339  0.4686315050215204
  0.1666666666666662  0.5833333333333339  0.4686315050215204
  0.4166666666666662  0.5833333333333339  0.4686315050215204
  0.6666666666666662  0.5833333333333339  0.4686315050215204
  0.9166666666666663  0.5833333333333339  0.4686315050215204
  0.1666666666666662  0.8333333333333339  0.4686315050215204
  0.4166666666666662  0.8333333333333339  0.4686315050215204
  0.6666666666666662  0.8333333333333339  0.4686315050215204
  0.9166666666666662  0.8333333333333338  0.4686315050215204
  0.1666666666666661  0.0833333333333339  0.7186315050215204
  0.4166666666666661  0.0833333333333339  0.7186315050215204
  0.6666666666666661  0.0833333333333339  0.7186315050215204
  0.9166666666666662  0.0833333333333338  0.7186315050215204
  0.1666666666666661  0.3333333333333339  0.7186315050215204
  0.4166666666666662  0.3333333333333339  0.7186315050215204
  0.6666666666666662  0.3333333333333339  0.7186315050215204
  0.9166666666666662  0.3333333333333339  0.7186315050215204
  0.1666666666666662  0.5833333333333339  0.7186315050215204
  0.4166666666666662  0.5833333333333339  0.7186315050215204
  0.6666666666666662  0.5833333333333339  0.7186315050215204
  0.9166666666666663  0.5833333333333339  0.7186315050215204
  0.1666666666666662  0.8333333333333339  0.7186315050215204
  0.4166666666666662  0.8333333333333339  0.7186315050215204
  0.6666666666666662  0.8333333333333339  0.7186315050215204
  0.9166666666666662  0.8333333333333338  0.7186315050215204
  0.1666666666666661  0.0833333333333339  0.9686315050215204
  0.4166666666666661  0.0833333333333339  0.9686315050215204
  0.6666666666666661  0.0833333333333339  0.9686315050215204
  0.9166666666666662  0.0833333333333338  0.9686315050215204
  0.1666666666666661  0.3333333333333339  0.9686315050215204
  0.4166666666666662  0.3333333333333339  0.9686315050215204
  0.6666666666666662  0.3333333333333339  0.9686315050215204
  0.9166666666666662  0.3333333333333339  0.9686315050215204
  0.1666666666666662  0.5833333333333339  0.9686315050215204
  0.4166666666666662  0.5833333333333339  0.9686315050215204
  0.6666666666666662  0.5833333333333339  0.9686315050215204
  0.9166666666666663  0.5833333333333339  0.9686315050215204
  0.1666666666666662  0.8333333333333339  0.9686315050215204
  0.4166666666666662  0.8333333333333339  0.9686315050215204
  0.6666666666666662  0.8333333333333339  0.9686315050215204
  0.9166666666666662  0.8333333333333338  0.9686315050215204
  0.0833333333333340  0.1666666666666661  0.0936315050215205
  0.3333333333333340  0.1666666666666660  0.0936315050215205
  0.5833333333333339  0.1666666666666660  0.0936315050215205
  0.8333333333333339  0.1666666666666660  0.0936315050215205
  0.0833333333333340  0.4166666666666661  0.0936315050215205
  0.3333333333333340  0.4166666666666660  0.0936315050215205
  0.5833333333333340  0.4166666666666661  0.0936315050215205
  0.8333333333333339  0.4166666666666661  0.0936315050215205
  0.0833333333333340  0.6666666666666661  0.0936315050215205
  0.3333333333333340  0.6666666666666661  0.0936315050215205
  0.5833333333333340  0.6666666666666661  0.0936315050215205
  0.8333333333333340  0.6666666666666662  0.0936315050215205
  0.0833333333333340  0.9166666666666661  0.0936315050215205
  0.3333333333333340  0.9166666666666662  0.0936315050215205
  0.5833333333333339  0.9166666666666661  0.0936315050215205
  0.8333333333333339  0.9166666666666661  0.0936315050215205
  0.0833333333333340  0.1666666666666661  0.3436315050215205
  0.3333333333333340  0.1666666666666660  0.3436315050215205
  0.5833333333333339  0.1666666666666660  0.3436315050215205
  0.8333333333333339  0.1666666666666660  0.3436315050215205
  0.0833333333333340  0.4166666666666661  0.3436315050215205
  0.3333333333333340  0.4166666666666660  0.3436315050215205
  0.5833333333333340  0.4166666666666661  0.3436315050215205
  0.8333333333333339  0.4166666666666661  0.3436315050215205
  0.0833333333333340  0.6666666666666661  0.3436315050215205
  0.3333333333333340  0.6666666666666661  0.3436315050215205
  0.5833333333333340  0.6666666666666661  0.3436315050215205
  0.8333333333333340  0.6666666666666662  0.3436315050215205
  0.0833333333333340  0.9166666666666661  0.3436315050215205
  0.3333333333333340  0.9166666666666662  0.3436315050215205
  0.5833333333333339  0.9166666666666661  0.3436315050215205
  0.8333333333333339  0.9166666666666661  0.3436315050215205
  0.0833333333333340  0.1666666666666661  0.5936315050215204
  0.3333333333333340  0.1666666666666660  0.5936315050215204
  0.5833333333333339  0.1666666666666660  0.5936315050215204
  0.8333333333333339  0.1666666666666660  0.5936315050215204
  0.0833333333333340  0.4166666666666661  0.5936315050215204
  0.3333333333333340  0.4166666666666660  0.5936315050215204
  0.5833333333333340  0.4166666666666661  0.5936315050215204
  0.8333333333333339  0.4166666666666661  0.5936315050215204
  0.0833333333333340  0.6666666666666661  0.5936315050215204
  0.3333333333333340  0.6666666666666661  0.5936315050215204
  0.5833333333333340  0.6666666666666661  0.5936315050215204
  0.8333333333333340  0.6666666666666662  0.5936315050215204
  0.0833333333333340  0.9166666666666661  0.5936315050215204
  0.3333333333333340  0.9166666666666662  0.5936315050215204
  0.5833333333333339  0.9166666666666661  0.5936315050215204
  0.8333333333333339  0.9166666666666661  0.5936315050215204
  0.0833333333333340  0.1666666666666661  0.8436315050215204
  0.3333333333333340  0.1666666666666660  0.8436315050215204
  0.5833333333333339  0.1666666666666660  0.8436315050215204
  0.8333333333333339  0.1666666666666660  0.8436315050215204
  0.0833333333333340  0.4166666666666661  0.8436315050215204
  0.3333333333333340  0.4166666666666660  0.8436315050215204
  0.5833333333333340  0.4166666666666661  0.8436315050215204
  0.8333333333333339  0.4166666666666661  0.8436315050215204
  0.0833333333333340  0.6666666666666661  0.8436315050215204
  0.3333333333333340  0.6666666666666661  0.8436315050215204
  0.5833333333333340  0.6666666666666661  0.8436315050215204
  0.8333333333333340  0.6666666666666662  0.8436315050215204
  0.0833333333333340  0.9166666666666661  0.8436315050215204
  0.3333333333333340  0.9166666666666662  0.8436315050215204
  0.5833333333333339  0.9166666666666661  0.8436315050215204
  0.8333333333333339  0.9166666666666661  0.8436315050215204
  0.1666666666666661  0.0833333333333339  0.1251182449784784
  0.4166666666666661  0.0833333333333339  0.1251182449784784
  0.6666666666666661  0.0833333333333339  0.1251182449784784
  0.9166666666666662  0.0833333333333338  0.1251182449784784
  0.1666666666666661  0.3333333333333339  0.1251182449784784
  0.4166666666666662  0.3333333333333339  0.1251182449784784
  0.6666666666666662  0.3333333333333339  0.1251182449784784
  0.9166666666666662  0.3333333333333339  0.1251182449784784
  0.1666666666666662  0.5833333333333339  0.1251182449784784
  0.4166666666666662  0.5833333333333339  0.1251182449784784
  0.6666666666666662  0.5833333333333339  0.1251182449784784
  0.9166666666666663  0.5833333333333339  0.1251182449784784
  0.1666666666666662  0.8333333333333339  0.1251182449784784
  0.4166666666666662  0.8333333333333339  0.1251182449784784
  0.6666666666666662  0.8333333333333339  0.1251182449784784
  0.9166666666666662  0.8333333333333338  0.1251182449784784
  0.1666666666666661  0.0833333333333339  0.3751182449784785
  0.4166666666666661  0.0833333333333339  0.3751182449784785
  0.6666666666666661  0.0833333333333339  0.3751182449784785
  0.9166666666666662  0.0833333333333338  0.3751182449784785
  0.1666666666666661  0.3333333333333339  0.3751182449784785
  0.4166666666666662  0.3333333333333339  0.3751182449784785
  0.6666666666666662  0.3333333333333339  0.3751182449784785
  0.9166666666666662  0.3333333333333339  0.3751182449784785
  0.1666666666666662  0.5833333333333339  0.3751182449784785
  0.4166666666666662  0.5833333333333339  0.3751182449784785
  0.6666666666666662  0.5833333333333339  0.3751182449784785
  0.9166666666666663  0.5833333333333339  0.3751182449784785
  0.1666666666666662  0.8333333333333339  0.3751182449784785
  0.4166666666666662  0.8333333333333339  0.3751182449784785
  0.6666666666666662  0.8333333333333339  0.3751182449784785
  0.9166666666666662  0.8333333333333338  0.3751182449784785
  0.1666666666666661  0.0833333333333339  0.6251182449784785
  0.4166666666666661  0.0833333333333339  0.6251182449784785
  0.6666666666666661  0.0833333333333339  0.6251182449784785
  0.9166666666666662  0.0833333333333338  0.6251182449784785
  0.1666666666666661  0.3333333333333339  0.6251182449784785
  0.4166666666666662  0.3333333333333339  0.6251182449784785
  0.6666666666666662  0.3333333333333339  0.6251182449784785
  0.9166666666666662  0.3333333333333339  0.6251182449784785
  0.1666666666666662  0.5833333333333339  0.6251182449784785
  0.4166666666666662  0.5833333333333339  0.6251182449784785
  0.6666666666666662  0.5833333333333339  0.6251182449784785
  0.9166666666666663  0.5833333333333339  0.6251182449784785
  0.1666666666666662  0.8333333333333339  0.6251182449784785
  0.4166666666666662  0.8333333333333339  0.6251182449784785
  0.6666666666666662  0.8333333333333339  0.6251182449784785
  0.9166666666666662  0.8333333333333338  0.6251182449784785
  0.1666666666666661  0.0833333333333339  0.8751182449784786
  0.4166666666666661  0.0833333333333339  0.8751182449784786
  0.6666666666666661  0.0833333333333339  0.8751182449784786
  0.9166666666666662  0.0833333333333338  0.8751182449784786
  0.1666666666666661  0.3333333333333339  0.8751182449784786
  0.4166666666666662  0.3333333333333339  0.8751182449784786
  0.6666666666666662  0.3333333333333339  0.8751182449784786
  0.9166666666666662  0.3333333333333339  0.8751182449784786
  0.1666666666666662  0.5833333333333339  0.8751182449784786
  0.4166666666666662  0.5833333333333339  0.8751182449784786
  0.6666666666666662  0.5833333333333339  0.8751182449784786
  0.9166666666666663  0.5833333333333339  0.8751182449784786
  0.1666666666666662  0.8333333333333339  0.8751182449784786
  0.4166666666666662  0.8333333333333339  0.8751182449784786
  0.6666666666666662  0.8333333333333339  0.8751182449784786
  0.9166666666666662  0.8333333333333338  0.8751182449784786
  0.0833333333333340  0.1666666666666661  0.0001182449784784
  0.3333333333333340  0.1666666666666660  0.0001182449784784
  0.5833333333333339  0.1666666666666660  0.0001182449784784
  0.8333333333333339  0.1666666666666660  0.0001182449784784
  0.0833333333333340  0.4166666666666661  0.0001182449784784
  0.3333333333333340  0.4166666666666660  0.0001182449784784
  0.5833333333333340  0.4166666666666661  0.0001182449784784
  0.8333333333333339  0.4166666666666661  0.0001182449784784
  0.0833333333333340  0.6666666666666661  0.0001182449784784
  0.3333333333333340  0.6666666666666661  0.0001182449784784
  0.5833333333333340  0.6666666666666661  0.0001182449784784
  0.8333333333333340  0.6666666666666662  0.0001182449784784
  0.0833333333333340  0.9166666666666661  0.0001182449784784
  0.3333333333333340  0.9166666666666662  0.0001182449784784
  0.5833333333333339  0.9166666666666661  0.0001182449784784
  0.8333333333333339  0.9166666666666661  0.0001182449784784
  0.0833333333333340  0.1666666666666661  0.2501182449784785
  0.3333333333333340  0.1666666666666660  0.2501182449784785
  0.5833333333333339  0.1666666666666660  0.2501182449784785
  0.8333333333333339  0.1666666666666660  0.2501182449784785
  0.0833333333333340  0.4166666666666661  0.2501182449784785
  0.3333333333333340  0.4166666666666660  0.2501182449784785
  0.5833333333333340  0.4166666666666661  0.2501182449784785
  0.8333333333333339  0.4166666666666661  0.2501182449784785
  0.0833333333333340  0.6666666666666661  0.2501182449784785
  0.3333333333333340  0.6666666666666661  0.2501182449784785
  0.5833333333333340  0.6666666666666661  0.2501182449784785
  0.8333333333333340  0.6666666666666662  0.2501182449784785
  0.0833333333333340  0.9166666666666661  0.2501182449784785
  0.3333333333333340  0.9166666666666662  0.2501182449784785
  0.5833333333333339  0.9166666666666661  0.2501182449784785
  0.8333333333333339  0.9166666666666661  0.2501182449784785
  0.0833333333333340  0.1666666666666661  0.5001182449784785
  0.3333333333333340  0.1666666666666660  0.5001182449784785
  0.5833333333333339  0.1666666666666660  0.5001182449784785
  0.8333333333333339  0.1666666666666660  0.5001182449784785
  0.0833333333333340  0.4166666666666661  0.5001182449784785
  0.3333333333333340  0.4166666666666660  0.5001182449784785
  0.5833333333333340  0.4166666666666661  0.5001182449784785
  0.8333333333333339  0.4166666666666661  0.5001182449784785
  0.0833333333333340  0.6666666666666661  0.5001182449784785
  0.3333333333333340  0.6666666666666661  0.5001182449784785
  0.5833333333333340  0.6666666666666661  0.5001182449784785
  0.8333333333333340  0.6666666666666662  0.5001182449784785
  0.0833333333333340  0.9166666666666661  0.5001182449784785
  0.3333333333333340  0.9166666666666662  0.5001182449784785
  0.5833333333333339  0.9166666666666661  0.5001182449784785
  0.8333333333333339  0.9166666666666661  0.5001182449784785
  0.0833333333333340  0.1666666666666661  0.7501182449784785
  0.3333333333333340  0.1666666666666660  0.7501182449784785
  0.5833333333333339  0.1666666666666660  0.7501182449784785
  0.8333333333333339  0.1666666666666660  0.7501182449784785
  0.0833333333333340  0.4166666666666661  0.7501182449784785
  0.3333333333333340  0.4166666666666660  0.7501182449784785
  0.5833333333333340  0.4166666666666661  0.7501182449784785
  0.8333333333333339  0.4166666666666661  0.7501182449784785
  0.0833333333333340  0.6666666666666661  0.7501182449784785
  0.3333333333333340  0.6666666666666661  0.7501182449784785
  0.5833333333333340  0.6666666666666661  0.7501182449784785
  0.8333333333333340  0.6666666666666662  0.7501182449784785
  0.0833333333333340  0.9166666666666661  0.7501182449784785
  0.3333333333333340  0.9166666666666662  0.7501182449784785
  0.5833333333333339  0.9166666666666661  0.7501182449784785
  0.8333333333333339  0.9166666666666661  0.7501182449784785
