generated by phonopy
   1.0
    -0.0000000000000010   13.6718500186930854   13.6718500186930854
    13.6718500186930854    0.0000000000000000   13.6718500186930854
    13.6718500186930854   13.6718500186930854    0.0000000000000015
Si
 250
Direct
  0.0505171990478390  0.0500000000000000  0.0500000000000000
  0.2500000000000000  0.0500000000000000  0.0500000000000000
  0.4500000000000001  0.0500000000000000  0.0500000000000001
  0.6500000000000000  0.0500000000000000  0.0500000000000001
  0.8500000000000001  0.0500000000000000  0.0500000000000001
  0.0500000000000000  0.2500000000000001  0.0500000000000000
  0.2500000000000000  0.2500000000000000  0.0500000000000000
  0.4500000000000001  0.2500000000000000  0.0500000000000000
  0.6500000000000000  0.2500000000000000  0.0500000000000001
  0.8500000000000001  0.2500000000000000  0.0500000000000000
  0.0499999999999999  0.4500000000000001  0.0500000000000000
  0.2500000000000000  0.4500000000000000  0.0500000000000000
  0.4500000000000001  0.4500000000000000  0.0500000000000001
  0.6500000000000000  0.4500000000000000  0.0500000000000000
  0.8500000000000001  0.4500000000000000  0.0500000000000001
  0.0499999999999999  0.6500000000000001  0.0500000000000001
  0.2500000000000001  0.6500000000000000  0.0499999999999999
  0.4500000000000001  0.6500000000000000  0.0500000000000000
  0.6500000000000001  0.6500000000000000  0.0500000000000000
  0.8500000000000000  0.6499999999999999  0.0500000000000001
  0.0500000000000000  0.8500000000000001  0.0500000000000001
  0.2499999999999999  0.8500000000000001  0.0500000000000000
  0.4500000000000000  0.8500000000000001  0.0500000000000001
  0.6500000000000001  0.8500000000000002  0.0500000000000000
  0.8500000000000000  0.8500000000000001  0.0500000000000002
  0.0500000000000000  0.0500000000000000  0.2500000000000000
  0.2500000000000000  0.0500000000000000  0.2500000000000001
  0.4500000000000001  0.0500000000000000  0.2500000000000001
  0.6500000000000000  0.0500000000000000  0.2500000000000000
  0.8500000000000000  0.0500000000000000  0.2500000000000001
  0.0500000000000000  0.2500000000000000  0.2500000000000000
  0.2500000000000000  0.2500000000000000  0.2500000000000001
  0.4500000000000001  0.2500000000000000  0.2500000000000000
  0.6500000000000000  0.2500000000000000  0.2500000000000001
  0.8500000000000001  0.2499999999999999  0.2500000000000001
  0.0499999999999999  0.4500000000000001  0.2500000000000001
  0.2500000000000000  0.4500000000000000  0.2500000000000001
  0.4500000000000001  0.4500000000000000  0.2500000000000000
  0.6500000000000000  0.4500000000000000  0.2500000000000001
  0.8500000000000001  0.4500000000000000  0.2500000000000001
  0.0499999999999999  0.6500000000000000  0.2500000000000001
  0.2500000000000000  0.6500000000000000  0.2500000000000000
  0.4500000000000000  0.6500000000000000  0.2500000000000001
  0.6500000000000000  0.6500000000000000  0.2500000000000001
  0.8500000000000000  0.6500000000000000  0.2500000000000002
  0.0500000000000000  0.8500000000000001  0.2500000000000000
  0.2499999999999999  0.8500000000000001  0.2500000000000001
  0.4500000000000001  0.8500000000000001  0.2500000000000001
  0.6500000000000001  0.8500000000000002  0.2500000000000001
  0.8500000000000000  0.8500000000000001  0.2500000000000000
  0.0500000000000000  0.0500000000000000  0.4500000000000001
  0.2500000000000000  0.0500000000000000  0.4500000000000000
  0.4500000000000001  0.0500000000000000  0.4500000000000001
  0.6500000000000000  0.0500000000000000  0.4500000000000001
  0.8500000000000001  0.0499999999999999  0.4500000000000002
  0.0500000000000000  0.2500000000000000  0.4500000000000000
  0.2500000000000000  0.2500000000000000  0.4500000000000000
  0.4500000000000001  0.2500000000000000  0.4500000000000001
  0.6500000000000000  0.2500000000000000  0.4500000000000001
  0.8500000000000001  0.2499999999999999  0.4500000000000002
  0.0499999999999999  0.4500000000000001  0.4500000000000001
  0.2499999999999999  0.4500000000000000  0.4500000000000001
  0.4500000000000000  0.4500000000000000  0.4500000000000001
  0.6500000000000000  0.4500000000000000  0.4500000000000002
  0.8500000000000001  0.4500000000000000  0.4500000000000002
  0.0499999999999999  0.6500000000000000  0.4500000000000002
  0.2500000000000001  0.6500000000000000  0.4500000000000000
  0.4500000000000001  0.6499999999999999  0.4500000000000000
  0.6500000000000001  0.6500000000000000  0.4500000000000000
  0.8500000000000001  0.6499999999999998  0.4500000000000002
  0.0499999999999999  0.8500000000000002  0.4500000000000002
  0.2499999999999998  0.8500000000000002  0.4500000000000002
  0.4500000000000000  0.8500000000000002  0.4500000000000002
  0.6500000000000000  0.8500000000000002  0.4500000000000000
  0.8500000000000000  0.8500000000000001  0.4500000000000002
  0.0500000000000000  0.0500000000000000  0.6500000000000000
  0.2500000000000001  0.0500000000000000  0.6500000000000001
  0.4500000000000000  0.0500000000000000  0.6500000000000000
  0.6500000000000001  0.0500000000000000  0.6500000000000001
  0.8500000000000000  0.0500000000000001  0.6500000000000000
  0.0499999999999999  0.2500000000000001  0.6500000000000001
  0.2500000000000000  0.2500000000000000  0.6500000000000001
  0.4500000000000001  0.2500000000000001  0.6500000000000001
  0.6500000000000000  0.2500000000000000  0.6500000000000002
  0.8500000000000000  0.2500000000000001  0.6500000000000000
  0.0499999999999999  0.4500000000000001  0.6500000000000001
  0.2500000000000000  0.4500000000000001  0.6500000000000001
  0.4500000000000000  0.4500000000000001  0.6500000000000000
  0.6500000000000000  0.4500000000000001  0.6500000000000000
  0.8500000000000000  0.4500000000000001  0.6500000000000001
  0.0499999999999999  0.6500000000000002  0.6500000000000001
  0.2500000000000001  0.6500000000000000  0.6500000000000000
  0.4500000000000000  0.6500000000000001  0.6500000000000000
  0.6500000000000000  0.6500000000000000  0.6500000000000001
  0.8499999999999999  0.6500000000000000  0.6500000000000001
  0.0500000000000000  0.8500000000000001  0.6500000000000000
  0.2500000000000001  0.8500000000000001  0.6500000000000000
  0.4500000000000000  0.8500000000000001  0.6499999999999999
  0.6500000000000001  0.8500000000000001  0.6500000000000000
  0.8500000000000000  0.8500000000000001  0.6500000000000001
  0.0500000000000000  0.0500000000000001  0.8500000000000002
  0.2499999999999999  0.0500000000000001  0.8500000000000002
  0.4500000000000000  0.0500000000000000  0.8500000000000002
  0.6500000000000000  0.0500000000000000  0.8500000000000003
  0.8500000000000000  0.0500000000000001  0.8500000000000002
  0.0500000000000000  0.2500000000000001  0.8500000000000002
  0.2499999999999999  0.2500000000000001  0.8500000000000001
  0.4500000000000001  0.2500000000000001  0.8500000000000001
  0.6500000000000001  0.2500000000000000  0.8500000000000002
  0.8500000000000000  0.2500000000000001  0.8500000000000002
  0.0499999999999999  0.4500000000000001  0.8500000000000003
  0.2499999999999999  0.4500000000000002  0.8500000000000001
  0.4500000000000000  0.4500000000000002  0.8500000000000002
  0.6500000000000000  0.4500000000000001  0.8500000000000002
  0.8499999999999999  0.4500000000000001  0.8500000000000003
  0.0499999999999999  0.6500000000000001  0.8500000000000001
  0.2500000000000001  0.6500000000000000  0.8500000000000000
  0.4500000000000001  0.6500000000000000  0.8500000000000000
  0.6500000000000001  0.6499999999999999  0.8500000000000001
  0.8500000000000000  0.6499999999999999  0.8500000000000003
  0.0500000000000000  0.8500000000000001  0.8500000000000002
  0.2499999999999999  0.8500000000000002  0.8500000000000000
  0.4500000000000000  0.8500000000000001  0.8500000000000001
  0.6500000000000001  0.8500000000000001  0.8500000000000002
  0.8499999999999999  0.8500000000000001  0.8500000000000003
  0.0000000000000000  0.0000000000000000  0.0000000000000000
  0.2000000000000000  0.0000000000000000  0.0000000000000000
  0.4000000000000000  0.0000000000000000  0.0000000000000000
  0.6000000000000000  0.0000000000000000  0.0000000000000000
  0.8000000000000000  0.0000000000000000  0.0000000000000001
  0.0000000000000000  0.2000000000000000  0.0000000000000000
  0.2000000000000000  0.2000000000000000  0.0000000000000000
  0.4000000000000000  0.2000000000000000  0.0000000000000000
  0.6000000000000000  0.2000000000000000  0.0000000000000001
  0.8000000000000000  0.2000000000000000  0.0000000000000001
  0.0000000000000000  0.4000000000000000  0.0000000000000000
  0.2000000000000000  0.4000000000000000  0.0000000000000000
  0.4000000000000000  0.4000000000000000  0.0000000000000001
  0.6000000000000001  0.4000000000000000  0.0000000000000000
  0.8000000000000000  0.4000000000000000  0.0000000000000000
  0.0000000000000000  0.6000000000000001  0.0000000000000000
  0.2000000000000000  0.6000000000000001  0.0000000000000000
  0.4000000000000000  0.6000000000000001  0.0000000000000000
  0.6000000000000000  0.6000000000000001  0.0000000000000000
  0.8000000000000000  0.6000000000000002  0.0000000000000000
  0.0000000000000000  0.8000000000000000  0.0000000000000000
  0.2000000000000000  0.8000000000000000  0.0000000000000000
  0.4000000000000000  0.8000000000000000  0.0000000000000000
  0.6000000000000001  0.8000000000000002  0.9999999999999999
  0.7999999999999999  0.8000000000000000  0.0000000000000001
  0.0000000000000000  0.0000000000000000  0.2000000000000000
  0.2000000000000000  0.0000000000000000  0.2000000000000000
  0.4000000000000000  0.0000000000000000  0.2000000000000001
  0.6000000000000000  0.0000000000000000  0.2000000000000001
  0.8000000000000000  0.0000000000000000  0.2000000000000001
  0.0000000000000000  0.2000000000000000  0.2000000000000000
  0.2000000000000000  0.2000000000000000  0.2000000000000001
  0.4000000000000000  0.2000000000000000  0.2000000000000001
  0.6000000000000000  0.2000000000000000  0.2000000000000001
  0.7999999999999999  0.2000000000000000  0.2000000000000000
  0.0000000000000000  0.4000000000000001  0.2000000000000001
  0.2000000000000000  0.4000000000000001  0.2000000000000001
  0.4000000000000000  0.4000000000000000  0.2000000000000001
  0.6000000000000001  0.4000000000000000  0.2000000000000000
  0.8000000000000000  0.4000000000000000  0.2000000000000001
  0.0000000000000000  0.6000000000000000  0.2000000000000000
  0.2000000000000001  0.6000000000000001  0.2000000000000000
  0.4000000000000000  0.6000000000000001  0.2000000000000000
  0.6000000000000000  0.6000000000000001  0.2000000000000001
  0.8000000000000000  0.6000000000000001  0.2000000000000000
  0.0000000000000000  0.8000000000000000  0.2000000000000000
  0.2000000000000000  0.8000000000000000  0.2000000000000000
  0.4000000000000001  0.8000000000000000  0.2000000000000000
  0.6000000000000001  0.8000000000000002  0.2000000000000000
  0.7999999999999999  0.8000000000000000  0.2000000000000002
  0.0000000000000000  0.0000000000000000  0.4000000000000001
  0.2000000000000000  0.0000000000000000  0.4000000000000001
  0.4000000000000000  0.0000000000000000  0.4000000000000000
  0.6000000000000000  0.9999999999999999  0.4000000000000001
  0.8000000000000000  0.0000000000000000  0.4000000000000001
  0.0000000000000000  0.2000000000000001  0.4000000000000001
  0.2000000000000000  0.2000000000000001  0.4000000000000000
  0.4000000000000000  0.2000000000000001  0.4000000000000001
  0.6000000000000000  0.2000000000000000  0.4000000000000002
  0.8000000000000000  0.1999999999999999  0.4000000000000001
  0.0000000000000000  0.4000000000000001  0.4000000000000000
  0.2000000000000000  0.4000000000000000  0.4000000000000000
  0.4000000000000000  0.4000000000000000  0.4000000000000001
  0.6000000000000001  0.4000000000000000  0.4000000000000002
  0.8000000000000000  0.4000000000000000  0.4000000000000001
  0.9999999999999999  0.6000000000000001  0.4000000000000001
  0.2000000000000000  0.6000000000000002  0.4000000000000001
  0.3999999999999999  0.6000000000000002  0.4000000000000002
  0.6000000000000000  0.6000000000000001  0.4000000000000001
  0.7999999999999999  0.6000000000000002  0.4000000000000002
  0.9999999999999999  0.8000000000000002  0.4000000000000001
  0.1999999999999999  0.8000000000000000  0.4000000000000001
  0.3999999999999999  0.8000000000000002  0.4000000000000001
  0.6000000000000000  0.8000000000000002  0.4000000000000002
  0.7999999999999999  0.8000000000000000  0.4000000000000001
  0.0000000000000000  0.0000000000000000  0.6000000000000001
  0.2000000000000000  0.0000000000000000  0.6000000000000001
  0.4000000000000000  0.0000000000000000  0.6000000000000002
  0.6000000000000001  0.0000000000000001  0.6000000000000001
  0.8000000000000000  0.0000000000000000  0.6000000000000001
  0.9999999999999999  0.2000000000000001  0.6000000000000001
  0.2000000000000000  0.2000000000000000  0.6000000000000002
  0.4000000000000001  0.2000000000000000  0.6000000000000001
  0.6000000000000000  0.2000000000000001  0.6000000000000001
  0.8000000000000000  0.2000000000000000  0.6000000000000002
  0.9999999999999999  0.4000000000000001  0.6000000000000001
  0.2000000000000000  0.4000000000000001  0.6000000000000001
  0.4000000000000000  0.4000000000000001  0.6000000000000001
  0.6000000000000001  0.4000000000000001  0.6000000000000000
  0.8000000000000000  0.4000000000000000  0.6000000000000001
  0.0000000000000000  0.6000000000000002  0.6000000000000000
  0.2000000000000001  0.6000000000000001  0.6000000000000001
  0.4000000000000000  0.6000000000000002  0.6000000000000002
  0.6000000000000000  0.6000000000000001  0.6000000000000001
  0.8000000000000000  0.6000000000000001  0.6000000000000001
  0.9999999999999999  0.8000000000000003  0.6000000000000001
  0.1999999999999999  0.8000000000000002  0.6000000000000002
  0.3999999999999999  0.8000000000000002  0.6000000000000003
  0.5999999999999999  0.8000000000000003  0.6000000000000001
  0.7999999999999998  0.8000000000000002  0.6000000000000003
  0.0000000000000000  0.0000000000000000  0.8000000000000002
  0.2000000000000000  0.0000000000000001  0.8000000000000000
  0.4000000000000000  0.0000000000000000  0.8000000000000002
  0.6000000000000001  0.0000000000000000  0.8000000000000002
  0.7999999999999999  0.0000000000000001  0.8000000000000000
  0.0000000000000000  0.2000000000000000  0.8000000000000000
  0.2000000000000000  0.2000000000000000  0.8000000000000002
  0.4000000000000001  0.2000000000000000  0.7999999999999999
  0.6000000000000001  0.2000000000000000  0.8000000000000000
  0.7999999999999999  0.2000000000000000  0.8000000000000002
  0.9999999999999999  0.4000000000000001  0.8000000000000002
  0.1999999999999999  0.4000000000000002  0.8000000000000002
  0.4000000000000000  0.4000000000000001  0.8000000000000000
  0.6000000000000001  0.4000000000000001  0.8000000000000002
  0.7999999999999999  0.4000000000000001  0.8000000000000003
  0.9999999999999999  0.6000000000000003  0.8000000000000002
  0.1999999999999999  0.6000000000000003  0.8000000000000003
  0.3999999999999999  0.6000000000000002  0.8000000000000002
  0.5999999999999999  0.6000000000000001  0.8000000000000003
  0.7999999999999998  0.6000000000000002  0.8000000000000003
  0.0000000000000000  0.8000000000000002  0.8000000000000000
  0.2000000000000000  0.8000000000000002  0.8000000000000002
  0.4000000000000000  0.8000000000000000  0.8000000000000000
  0.6000000000000001  0.8000000000000000  0.8000000000000000
  0.7999999999999999  0.8000000000000000  0.8000000000000003
