  PAW_PBE Si 05Jan2001                   
   4.00000000000000     
 parameters from PSCTR are:
   VRHFIN =Si: s2p2
   LEXCH  = PE
   EATOM  =   103.0669 eV,    7.5752 Ry

   TITEL  = PAW_PBE Si 05Jan2001
   LULTRA =        F    use ultrasoft PP ?
   IUNSCR =        1    unscreen: 0-lin 1-nonlin 2-no
   RPACOR =    1.500    partial core radius
   POMASS =   28.085; ZVAL   =    4.000    mass and valenz
   RCORE  =    1.900    outmost cutoff radius
   RWIGS  =    2.480; RWIGS  =    1.312    wigner-seitz radius (au A)
   ENMAX  =  245.345; ENMIN  =  184.009 eV
   ICORE  =        2    local potential
   LCOR   =        T    correct aug charges
   LPAW   =        T    paw PP
   EAUG   =  322.069
   DEXC   =    0.000
   RMAX   =    1.950    core radius for proj-oper
   RAUG   =    1.300    factor for augmentation sphere
   RDEP   =    1.993    radius for radial grids
   RDEPT  =    1.837    core radius for aug-charge
 
   Atomic configuration
    6 entries
     n  l   j            E        occ.
     1  0  0.50     -1785.8828   2.0000
     2  0  0.50      -139.4969   2.0000
     2  1  1.50       -95.5546   6.0000
     3  0  0.50       -10.8127   2.0000
     3  1  0.50        -4.0811   2.0000
     3  2  1.50        -4.0817   0.0000
   Description
     l       E           TYP  RCUT    TYP  RCUT
     0    -10.8127223     23  1.900
     0     -7.6451159     23  1.900
     1     -4.0811372     23  1.900
     1      2.4879257     23  1.900
     2     -4.0817478      7  1.900
   Error from kinetic energy argument (eV)
   NDATA  =      100
   STEP   =   20.000   1.050
  10.1      9.04      8.56      7.65      7.23      6.44      5.73      5.40
  4.79      4.25      4.00      3.54      3.13      2.77      2.45      2.16
  1.91      1.69      1.50      1.24      1.10     0.975     0.812     0.718
 0.636     0.529     0.440     0.388     0.322     0.266     0.219     0.180
 0.148     0.121     0.986E-01 0.804E-01 0.614E-01 0.504E-01 0.392E-01 0.328E-01
 0.265E-01 0.220E-01 0.189E-01 0.166E-01 0.149E-01 0.135E-01 0.123E-01 0.109E-01
 0.977E-02 0.840E-02 0.707E-02 0.605E-02 0.488E-02 0.387E-02 0.290E-02 0.229E-02
 0.185E-02 0.152E-02 0.134E-02 0.125E-02 0.121E-02 0.117E-02 0.112E-02 0.102E-02
 0.915E-03 0.776E-03 0.640E-03 0.524E-03 0.425E-03 0.369E-03 0.331E-03 0.310E-03
 0.294E-03 0.273E-03 0.242E-03 0.210E-03 0.175E-03 0.146E-03 0.124E-03 0.113E-03
 0.105E-03 0.973E-04 0.879E-04 0.755E-04 0.633E-04 0.539E-04 0.478E-04 0.438E-04
 0.404E-04 0.362E-04 0.308E-04 0.264E-04 0.229E-04 0.209E-04 0.192E-04 0.170E-04
 0.145E-04 0.126E-04 0.112E-04 0.103E-04
END of PSCTR-controll parameters
 local part
   98.2657514061040     
  0.84157827E+01  0.84210738E+01  0.84276982E+01  0.84387529E+01  0.84542581E+01
  0.84742396E+01  0.84987267E+01  0.85277503E+01  0.85613408E+01  0.85995259E+01
  0.86423293E+01  0.86897698E+01  0.87418601E+01  0.87986073E+01  0.88600119E+01
  0.89260684E+01  0.89967646E+01  0.90720817E+01  0.91519931E+01  0.92364635E+01
  0.93254478E+01  0.94188892E+01  0.95167180E+01  0.96188495E+01  0.97251831E+01
  0.98356006E+01  0.99499656E+01  0.10068122E+02  0.10189896E+02  0.10315092E+02
  0.10443494E+02  0.10574869E+02  0.10708960E+02  0.10845494E+02  0.10984175E+02
  0.11124688E+02  0.11266699E+02  0.11409854E+02  0.11553782E+02  0.11698093E+02
  0.11842379E+02  0.11986220E+02  0.12129179E+02  0.12270807E+02  0.12410647E+02
  0.12548229E+02  0.12683078E+02  0.12814715E+02  0.12942655E+02  0.13066413E+02
  0.13185507E+02  0.13299453E+02  0.13407778E+02  0.13510011E+02  0.13605696E+02
  0.13694386E+02  0.13775649E+02  0.13849071E+02  0.13914257E+02  0.13970832E+02
  0.14018447E+02  0.14056776E+02  0.14085521E+02  0.14104413E+02  0.14113214E+02
  0.14111717E+02  0.14099750E+02  0.14077174E+02  0.14043887E+02  0.13999823E+02
  0.13944953E+02  0.13879287E+02  0.13802871E+02  0.13715791E+02  0.13618172E+02
  0.13510174E+02  0.13391995E+02  0.13263871E+02  0.13126072E+02  0.12978902E+02
  0.12822701E+02  0.12657837E+02  0.12484712E+02  0.12303752E+02  0.12115414E+02
  0.11920177E+02  0.11718542E+02  0.11511032E+02  0.11298186E+02  0.11080557E+02
  0.10858712E+02  0.10633228E+02  0.10404687E+02  0.10173679E+02  0.99407916E+01
  0.97066145E+01  0.94717325E+01  0.92367246E+01  0.90021610E+01  0.87686002E+01
  0.85365875E+01  0.83066515E+01  0.80793028E+01  0.78550311E+01  0.76343038E+01
  0.74175639E+01  0.72052283E+01  0.69976864E+01  0.67952987E+01  0.65983955E+01
  0.64072761E+01  0.62222079E+01  0.60434255E+01  0.58711305E+01  0.57054914E+01
  0.55466428E+01  0.53946864E+01  0.52496904E+01  0.51116908E+01  0.49806913E+01
  0.48566647E+01  0.47395535E+01  0.46292714E+01  0.45257040E+01  0.44287107E+01
  0.43381259E+01  0.42537609E+01  0.41754051E+01  0.41028283E+01  0.40357824E+01
  0.39740032E+01  0.39172126E+01  0.38651205E+01  0.38174269E+01  0.37738239E+01
  0.37339980E+01  0.36976316E+01  0.36644057E+01  0.36340010E+01  0.36061008E+01
  0.35803917E+01  0.35565662E+01  0.35343243E+01  0.35133744E+01  0.34934356E+01
  0.34742386E+01  0.34555273E+01  0.34370594E+01  0.34186082E+01  0.33999625E+01
  0.33809283E+01  0.33613289E+01  0.33410051E+01  0.33198163E+01  0.32976400E+01
  0.32743723E+01  0.32499276E+01  0.32242386E+01  0.31972561E+01  0.31689481E+01
  0.31393000E+01  0.31083133E+01  0.30760055E+01  0.30424088E+01  0.30075693E+01
  0.29715464E+01  0.29344112E+01  0.28962459E+01  0.28571426E+01  0.28172018E+01
  0.27765317E+01  0.27352466E+01  0.26934661E+01  0.26513137E+01  0.26089155E+01
  0.25663991E+01  0.25238926E+01  0.24815235E+01  0.24394172E+01  0.23976965E+01
  0.23564804E+01  0.23158831E+01  0.22760134E+01  0.22369739E+01  0.21988601E+01
  0.21617599E+01  0.21257533E+01  0.20909117E+01  0.20572975E+01  0.20249639E+01
  0.19939549E+01  0.19643047E+01  0.19360380E+01  0.19091702E+01  0.18837070E+01
  0.18596451E+01  0.18369721E+01  0.18156671E+01  0.17957010E+01  0.17770369E+01
  0.17596305E+01  0.17434311E+01  0.17283815E+01  0.17144192E+01  0.17014767E+01
  0.16894823E+01  0.16783606E+01  0.16680337E+01  0.16584212E+01  0.16494414E+01
  0.16410120E+01  0.16330503E+01  0.16254746E+01  0.16182040E+01  0.16111597E+01
  0.16042653E+01  0.15974473E+01  0.15906355E+01  0.15837638E+01  0.15767703E+01
  0.15695978E+01  0.15621942E+01  0.15545124E+01  0.15465111E+01  0.15381545E+01
  0.15294125E+01  0.15202610E+01  0.15106817E+01  0.15006618E+01  0.14901946E+01
  0.14792787E+01  0.14679181E+01  0.14561220E+01  0.14439045E+01  0.14312843E+01
  0.14182845E+01  0.14049320E+01  0.13912573E+01  0.13772941E+01  0.13630790E+01
  0.13486508E+01  0.13340503E+01  0.13193195E+01  0.13045019E+01  0.12896413E+01
  0.12747816E+01  0.12599667E+01  0.12452398E+01  0.12306429E+01  0.12162169E+01
  0.12020007E+01  0.11880315E+01  0.11743438E+01  0.11609698E+01  0.11479386E+01
  0.11352766E+01  0.11230067E+01  0.11111486E+01  0.10997185E+01  0.10887293E+01
  0.10781901E+01  0.10681067E+01  0.10584812E+01  0.10493126E+01  0.10405963E+01
  0.10323245E+01  0.10244864E+01  0.10170684E+01  0.10100541E+01  0.10034245E+01
  0.99715842E+00  0.99123278E+00  0.98562260E+00  0.98030147E+00  0.97524176E+00
  0.97041492E+00  0.96579177E+00  0.96134272E+00  0.95703813E+00  0.95284851E+00
  0.94874481E+00  0.94469866E+00  0.94068261E+00  0.93667036E+00  0.93263699E+00
  0.92855911E+00  0.92441506E+00  0.92018508E+00  0.91585139E+00  0.91139837E+00
  0.90681257E+00  0.90208284E+00  0.89720031E+00  0.89215846E+00  0.88695307E+00
  0.88158221E+00  0.87604623E+00  0.87034764E+00  0.86449105E+00  0.85848310E+00
  0.85233228E+00  0.84604885E+00  0.83964467E+00  0.83313304E+00  0.82652853E+00
  0.81984678E+00  0.81310436E+00  0.80631854E+00  0.79950711E+00  0.79268821E+00
  0.78588011E+00  0.77910103E+00  0.77236900E+00  0.76570163E+00  0.75911595E+00
  0.75262828E+00  0.74625406E+00  0.74000769E+00  0.73390245E+00  0.72795034E+00
  0.72216201E+00  0.71654666E+00  0.71111201E+00  0.70586419E+00  0.70080779E+00
  0.69594576E+00  0.69127948E+00  0.68680873E+00  0.68253171E+00  0.67844512E+00
  0.67454419E+00  0.67082277E+00  0.66727336E+00  0.66388728E+00  0.66065470E+00
  0.65756482E+00  0.65460595E+00  0.65176565E+00  0.64903085E+00  0.64638804E+00
  0.64382333E+00  0.64132264E+00  0.63887182E+00  0.63645681E+00  0.63406371E+00
  0.63167898E+00  0.62928953E+00  0.62688282E+00  0.62444703E+00  0.62197109E+00
  0.61944485E+00  0.61685909E+00  0.61420564E+00  0.61147745E+00  0.60866857E+00
  0.60577426E+00  0.60279097E+00  0.59971637E+00  0.59654936E+00  0.59329001E+00
  0.58993961E+00  0.58650059E+00  0.58297648E+00  0.57937187E+00  0.57569237E+00
  0.57194448E+00  0.56813556E+00  0.56427372E+00  0.56036773E+00  0.55642691E+00
  0.55246106E+00  0.54848032E+00  0.54449508E+00  0.54051586E+00  0.53655323E+00
  0.53261770E+00  0.52871958E+00  0.52486894E+00  0.52107546E+00  0.51734836E+00
  0.51369633E+00  0.51012743E+00  0.50664899E+00  0.50326761E+00  0.49998904E+00
  0.49681819E+00  0.49375905E+00  0.49081466E+00  0.48798714E+00  0.48527765E+00
  0.48268635E+00  0.48021249E+00  0.47785436E+00  0.47560937E+00  0.47347400E+00
  0.47144395E+00  0.46951410E+00  0.46767862E+00  0.46593101E+00  0.46426418E+00
  0.46267051E+00  0.46114196E+00  0.45967012E+00  0.45824631E+00  0.45686165E+00
  0.45550718E+00  0.45417389E+00  0.45285284E+00  0.45153526E+00  0.45021257E+00
  0.44887651E+00  0.44751921E+00  0.44613322E+00  0.44471163E+00  0.44324809E+00
  0.44173687E+00  0.44017292E+00  0.43855189E+00  0.43687018E+00  0.43512494E+00
  0.43331410E+00  0.43143638E+00  0.42949128E+00  0.42747908E+00  0.42540083E+00
  0.42325834E+00  0.42105410E+00  0.41879135E+00  0.41647393E+00  0.41410629E+00
  0.41169346E+00  0.40924092E+00  0.40675463E+00  0.40424087E+00  0.40170626E+00
  0.39915764E+00  0.39660202E+00  0.39404651E+00  0.39149826E+00  0.38896435E+00
  0.38645179E+00  0.38396739E+00  0.38151775E+00  0.37910915E+00  0.37674752E+00
  0.37443839E+00  0.37218682E+00  0.36999739E+00  0.36787410E+00  0.36582042E+00
  0.36383920E+00  0.36193268E+00  0.36010247E+00  0.35834954E+00  0.35667423E+00
  0.35507622E+00  0.35355459E+00  0.35210779E+00  0.35073369E+00  0.34942958E+00
  0.34819223E+00  0.34701790E+00  0.34590241E+00  0.34484115E+00  0.34382917E+00
  0.34286120E+00  0.34193171E+00  0.34103498E+00  0.34016513E+00  0.33931621E+00
  0.33848221E+00  0.33765717E+00  0.33683518E+00  0.33601049E+00  0.33517751E+00
  0.33433089E+00  0.33346559E+00  0.33257685E+00  0.33166032E+00  0.33071204E+00
  0.32972848E+00  0.32870659E+00  0.32764378E+00  0.32653800E+00  0.32538767E+00
  0.32419176E+00  0.32294975E+00  0.32166166E+00  0.32032801E+00  0.31894983E+00
  0.31752862E+00  0.31606638E+00  0.31456552E+00  0.31302889E+00  0.31145970E+00
  0.30986149E+00  0.30823814E+00  0.30659375E+00  0.30493266E+00  0.30325937E+00
  0.30157850E+00  0.29989478E+00  0.29821295E+00  0.29653774E+00  0.29487384E+00
  0.29322581E+00  0.29159810E+00  0.28999494E+00  0.28842037E+00  0.28687815E+00
  0.28537173E+00  0.28390425E+00  0.28247850E+00  0.28109688E+00  0.27976142E+00
  0.27847372E+00  0.27723499E+00  0.27604598E+00  0.27490705E+00  0.27381811E+00
  0.27277867E+00  0.27178782E+00  0.27084424E+00  0.26994624E+00  0.26909178E+00
  0.26827846E+00  0.26750359E+00  0.26676420E+00  0.26605705E+00  0.26537872E+00
  0.26472559E+00  0.26409390E+00  0.26347982E+00  0.26287940E+00  0.26228871E+00
  0.26170380E+00  0.26112078E+00  0.26053582E+00  0.25994525E+00  0.25934552E+00
  0.25873328E+00  0.25810539E+00  0.25745897E+00  0.25679138E+00  0.25610030E+00
  0.25538370E+00  0.25463989E+00  0.25386749E+00  0.25306548E+00  0.25223319E+00
  0.25137030E+00  0.25047681E+00  0.24955311E+00  0.24859991E+00  0.24761822E+00
  0.24660941E+00  0.24557510E+00  0.24451722E+00  0.24343793E+00  0.24233963E+00
  0.24122491E+00  0.24009654E+00  0.23895742E+00  0.23781058E+00  0.23665912E+00
  0.23550619E+00  0.23435497E+00  0.23320861E+00  0.23207023E+00  0.23094290E+00
  0.22982954E+00  0.22873298E+00  0.22765588E+00  0.22660071E+00  0.22556975E+00
  0.22456503E+00  0.22358838E+00  0.22264133E+00  0.22172517E+00  0.22084090E+00
  0.21998924E+00  0.21917062E+00  0.21838518E+00  0.21763278E+00  0.21691298E+00
  0.21622507E+00  0.21556808E+00  0.21494076E+00  0.21434166E+00  0.21376905E+00
  0.21322105E+00  0.21269556E+00  0.21219033E+00  0.21170298E+00  0.21123101E+00
  0.21077184E+00  0.21032282E+00  0.20988128E+00  0.20944453E+00  0.20900989E+00
  0.20857473E+00  0.20813650E+00  0.20769272E+00  0.20724104E+00  0.20677924E+00
  0.20630528E+00  0.20581727E+00  0.20531352E+00  0.20479256E+00  0.20425312E+00
  0.20369419E+00  0.20311496E+00  0.20251488E+00  0.20189363E+00  0.20125114E+00
  0.20058759E+00  0.19990339E+00  0.19919917E+00  0.19847580E+00  0.19773436E+00
  0.19697612E+00  0.19620254E+00  0.19541525E+00  0.19461602E+00  0.19380675E+00
  0.19298946E+00  0.19216623E+00  0.19133925E+00  0.19051071E+00  0.18968285E+00
  0.18885789E+00  0.18803806E+00  0.18722550E+00  0.18642234E+00  0.18563058E+00
  0.18485213E+00  0.18408879E+00  0.18334221E+00  0.18261386E+00  0.18190508E+00
  0.18121702E+00  0.18055061E+00  0.17990663E+00  0.17928561E+00  0.17868791E+00
  0.17811368E+00  0.17756283E+00  0.17703511E+00  0.17653003E+00  0.17604693E+00
  0.17558494E+00  0.17514305E+00  0.17472004E+00  0.17431456E+00  0.17392512E+00
  0.17355012E+00  0.17318784E+00  0.17283649E+00  0.17249419E+00  0.17215904E+00
  0.17182910E+00  0.17150240E+00  0.17117700E+00  0.17085099E+00  0.17052249E+00
  0.17018968E+00  0.16985083E+00  0.16950432E+00  0.16914863E+00  0.16878235E+00
  0.16840425E+00  0.16801322E+00  0.16760831E+00  0.16718876E+00  0.16675395E+00
  0.16630348E+00  0.16583708E+00  0.16535470E+00  0.16485644E+00  0.16434260E+00
  0.16381364E+00  0.16327019E+00  0.16271304E+00  0.16214313E+00  0.16156154E+00
  0.16096948E+00  0.16036827E+00  0.15975933E+00  0.15914418E+00  0.15852437E+00
  0.15790155E+00  0.15727738E+00  0.15665353E+00  0.15603169E+00  0.15541354E+00
  0.15480073E+00  0.15419485E+00  0.15359745E+00  0.15300998E+00  0.15243381E+00
  0.15187022E+00  0.15132035E+00  0.15078523E+00  0.15026574E+00  0.14976264E+00
  0.14927652E+00  0.14880782E+00  0.14835684E+00  0.14792369E+00  0.14750835E+00
  0.14711063E+00  0.14673020E+00  0.14636656E+00  0.14601907E+00  0.14568697E+00
  0.14536935E+00  0.14506518E+00  0.14477334E+00  0.14449260E+00  0.14422166E+00
  0.14395913E+00  0.14370359E+00  0.14345355E+00  0.14320753E+00  0.14296401E+00
  0.14272149E+00  0.14247846E+00  0.14223347E+00  0.14198509E+00  0.14173199E+00
  0.14147286E+00  0.14120650E+00  0.14093181E+00  0.14064779E+00  0.14035355E+00
  0.14004833E+00  0.13973149E+00  0.13940254E+00  0.13906109E+00  0.13870694E+00
  0.13833999E+00  0.13796029E+00  0.13756804E+00  0.13716357E+00  0.13674733E+00
  0.13631991E+00  0.13588203E+00  0.13543449E+00  0.13497823E+00  0.13451425E+00
  0.13404367E+00  0.13356764E+00  0.13308739E+00  0.13260420E+00  0.13211936E+00
  0.13163422E+00  0.13115008E+00  0.13066829E+00  0.13019015E+00  0.12971693E+00
  0.12924988E+00  0.12879016E+00  0.12833890E+00  0.12789711E+00  0.12746576E+00
  0.12704568E+00  0.12663761E+00  0.12624221E+00  0.12585997E+00  0.12549131E+00
  0.12513650E+00  0.12479568E+00  0.12446890E+00  0.12415605E+00  0.12385692E+00
  0.12357117E+00  0.12329835E+00  0.12303789E+00  0.12278912E+00  0.12255128E+00
  0.12232351E+00  0.12210488E+00  0.12189437E+00  0.12169094E+00  0.12149345E+00
  0.12130077E+00  0.12111171E+00  0.12092509E+00  0.12073970E+00  0.12055436E+00
  0.12036791E+00  0.12017920E+00  0.11998713E+00  0.11979067E+00  0.11958882E+00
  0.11938067E+00  0.11916539E+00  0.11894223E+00  0.11871054E+00  0.11846977E+00
  0.11821946E+00  0.11795928E+00  0.11768898E+00  0.11740846E+00  0.11711769E+00
  0.11681676E+00  0.11650590E+00  0.11618540E+00  0.11585569E+00  0.11551727E+00
  0.11517075E+00  0.11481682E+00  0.11445624E+00  0.11408986E+00  0.11371856E+00
  0.11334329E+00  0.11296505E+00  0.11258484E+00  0.11220371E+00  0.11182270E+00
  0.11144287E+00  0.11106526E+00  0.11069088E+00  0.11032073E+00  0.10995575E+00
  0.10959686E+00  0.10924489E+00  0.10890064E+00  0.10856481E+00  0.10823802E+00
  0.10792083E+00  0.10761369E+00  0.10731697E+00  0.10703093E+00  0.10675575E+00
  0.10649150E+00  0.10623816E+00  0.10599560E+00  0.10576362E+00  0.10554191E+00
  0.10533006E+00  0.10512760E+00  0.10493397E+00  0.10474853E+00  0.10457057E+00
  0.10439934E+00  0.10423403E+00  0.10407377E+00  0.10391769E+00  0.10376486E+00
  0.10361436E+00  0.10346525E+00  0.10331660E+00  0.10316749E+00  0.10301700E+00
  0.10286427E+00  0.10270845E+00  0.10254875E+00  0.10238443E+00  0.10221481E+00
  0.10203926E+00  0.10185725E+00  0.10166830E+00  0.10147204E+00  0.10126815E+00
  0.10105642E+00  0.10083671E+00  0.10060898E+00  0.10037327E+00  0.10012971E+00
  0.99878499E-01  0.99619941E-01  0.99354403E-01  0.99082329E-01  0.98804234E-01
  0.98520694E-01  0.98232343E-01  0.97939865E-01  0.97643987E-01  0.97345468E-01
  0.97045098E-01  0.96743682E-01  0.96442039E-01  0.96140988E-01  0.95841346E-01
  0.95543917E-01  0.95249483E-01  0.94958801E-01  0.94672589E-01  0.94391526E-01
  0.94116241E-01  0.93847307E-01  0.93585238E-01  0.93330481E-01  0.93083416E-01
  0.92844349E-01  0.92613514E-01  0.92391067E-01  0.92177088E-01  0.91971582E-01
  0.91774473E-01  0.91585615E-01  0.91404784E-01  0.91231686E-01  0.91065960E-01
  0.90907179E-01  0.90754858E-01  0.90608455E-01  0.90467383E-01  0.90331010E-01
  0.90198671E-01  0.90069670E-01  0.89943293E-01  0.89818810E-01  0.89695483E-01
  0.89572578E-01  0.89449363E-01  0.89325125E-01  0.89199170E-01  0.89070830E-01
  0.88939475E-01  0.88804513E-01  0.88665401E-01  0.88521645E-01  0.88372809E-01
  0.88218518E-01  0.88058459E-01  0.87892386E-01  0.87720120E-01  0.87541552E-01
  0.87356640E-01  0.87165411E-01  0.86967963E-01  0.86764459E-01  0.86555125E-01
  0.86340254E-01  0.86120194E-01  0.85895352E-01  0.85666183E-01  0.85433191E-01
  0.85196919E-01  0.84957943E-01  0.84716871E-01  0.84474330E-01  0.84230965E-01
  0.83987427E-01  0.83744375E-01  0.83502460E-01  0.83262325E-01  0.83024599E-01
  0.82789886E-01  0.82558766E-01  0.82331783E-01  0.82109442E-01  0.81892206E-01
  0.81680487E-01  0.81474646E-01  0.81274989E-01  0.81081762E-01  0.80895153E-01
  0.80715285E-01  0.80542223E-01  0.80375965E-01  0.80216452E-01  0.80063558E-01
  0.79917102E-01  0.79776842E-01  0.79642482E-01  0.79513673E-01  0.79390016E-01
  0.79271070E-01  0.79156353E-01  0.79045348E-01  0.78937510E-01  0.78832270E-01
  0.78729044E-01  0.78627233E-01  0.78526236E-01  0.78425450E-01  0.78324279E-01
  0.78222140E-01  0.78118466E-01  0.78012713E-01  0.77904366E-01  0.77792943E-01
  0.77678000E-01  0.77559135E-01  0.77435994E-01  0.77308271E-01  0.77175713E-01
  0.77038121E-01  0.76895353E-01  0.76747321E-01  0.76593998E-01  0.76435410E-01
  0.76271640E-01  0.76102829E-01  0.75929167E-01  0.75750899E-01  0.75568317E-01
 gradient corrections used for XC
           5
 core charge-density (partial)
  0.13681949E+01  0.13676959E+01  0.13662000E+01  0.13637104E+01  0.13602324E+01
  0.13557734E+01  0.13503428E+01  0.13439523E+01  0.13366153E+01  0.13283472E+01
  0.13191654E+01  0.13090891E+01  0.12981392E+01  0.12863383E+01  0.12737106E+01
  0.12602819E+01  0.12460793E+01  0.12311313E+01  0.12154677E+01  0.11991193E+01
  0.11821181E+01  0.11644969E+01  0.11462894E+01  0.11275300E+01  0.11082538E+01
  0.10884961E+01  0.10682931E+01  0.10476808E+01  0.10266956E+01  0.10053741E+01
  0.98375262E+00  0.96186755E+00  0.93975498E+00  0.91745072E+00  0.89499016E+00
  0.87240821E+00  0.84973922E+00  0.82701686E+00  0.80427411E+00  0.78154316E+00
  0.75885532E+00  0.73624100E+00  0.71372964E+00  0.69134965E+00  0.66912839E+00
  0.64709210E+00  0.62526589E+00  0.60367368E+00  0.58233822E+00  0.56128101E+00
  0.54052235E+00  0.52008128E+00  0.49997557E+00  0.48022176E+00  0.46083511E+00
  0.44182966E+00  0.42321818E+00  0.40501223E+00  0.38722214E+00  0.36985705E+00
  0.35292494E+00  0.33643261E+00  0.32038576E+00  0.30478900E+00  0.28964586E+00
  0.27495885E+00  0.26072948E+00  0.24695831E+00  0.23364497E+00  0.22078821E+00
  0.20838595E+00  0.19643529E+00  0.18493257E+00  0.17387344E+00  0.16325283E+00
  0.15306506E+00  0.14330386E+00  0.13396239E+00  0.12503331E+00  0.11650882E+00
  0.10838067E+00  0.10064023E+00  0.93278518E-01  0.86286246E-01  0.79653843E-01
  0.73371502E-01  0.67429213E-01  0.61816795E-01  0.56523931E-01  0.51540200E-01
  0.46855106E-01  0.42458107E-01  0.38338646E-01  0.34486172E-01  0.30890172E-01
  0.27540190E-01  0.24425849E-01  0.21536878E-01  0.18863124E-01  0.16394576E-01
  0.14121382E-01  0.12033859E-01  0.10122515E-01  0.83780585E-02  0.67914089E-02
  0.53537106E-02  0.40563407E-02  0.28909176E-02  0.18493085E-02  0.92363542E-03
  0.10628041E-03 -0.61011040E-03 -0.12326236E-02 -0.17680763E-02 -0.22230145E-02
 -0.26037132E-02 -0.29161761E-02 -0.31661366E-02 -0.33590602E-02 -0.35001461E-02
 -0.35943308E-02 -0.36462914E-02 -0.36604499E-02 -0.36409778E-02 -0.35918010E-02
 -0.35166057E-02 -0.34188437E-02 -0.33017394E-02 -0.31682955E-02 -0.30213003E-02
 -0.28633343E-02 -0.26967779E-02 -0.25238181E-02 -0.23464567E-02 -0.21665170E-02
 -0.19856524E-02 -0.18053531E-02 -0.16269545E-02 -0.14516446E-02 -0.12804716E-02
 -0.11143515E-02 -0.95407586E-03 -0.80031865E-03 -0.65364404E-03 -0.51451333E-03
 -0.38329200E-03 -0.26025655E-03 -0.14560117E-03 -0.39444206E-04  0.58165511E-04
  0.14724262E-03  0.22785936E-03  0.30013988E-03  0.36425486E-03  0.42041628E-03
  0.46887249E-03  0.50990345E-03  0.54381626E-03  0.57094089E-03  0.59162618E-03
  0.60623606E-03  0.61514598E-03  0.61873965E-03  0.61740590E-03  0.61153586E-03
  0.60152029E-03  0.58774720E-03  0.57059962E-03  0.55045360E-03  0.52767638E-03
  0.50262483E-03  0.47564398E-03  0.44706578E-03  0.41720804E-03  0.38637349E-03
  0.35484905E-03  0.32290520E-03  0.29079554E-03  0.25875640E-03  0.22700668E-03
  0.19574774E-03  0.16516339E-03  0.13542003E-03  0.10666685E-03  0.79036085E-04
  0.52643449E-04  0.27588516E-04  0.39552468E-05 -0.18187463E-04 -0.38785176E-04
 -0.57797261E-04 -0.75196218E-04 -0.90966955E-04 -0.10510606E-03 -0.11762103E-03
 -0.12852953E-03 -0.13785857E-03 -0.14564378E-03 -0.15192857E-03 -0.15676342E-03
 -0.16020506E-03 -0.16231574E-03 -0.16316249E-03 -0.16281640E-03 -0.16135194E-03
 -0.15884627E-03 -0.15537858E-03 -0.15102952E-03 -0.14588055E-03 -0.14001345E-03
 -0.13350974E-03 -0.12645021E-03 -0.11891448E-03 -0.11098055E-03 -0.10272444E-03
 -0.94219805E-04 -0.85537640E-04 -0.76745997E-04 -0.67909725E-04 -0.59090261E-04
 -0.50345444E-04 -0.41729365E-04 -0.33292246E-04 -0.25080348E-04 -0.17135911E-04
 -0.94971158E-05 -0.21980783E-05  0.47311370E-05  0.11264478E-04  0.17379845E-04
  0.23059011E-04  0.28287520E-04  0.33054576E-04  0.37352909E-04  0.41178630E-04
  0.44531077E-04  0.47412643E-04  0.49828603E-04  0.51786928E-04  0.53298092E-04
  0.54374882E-04  0.55032192E-04  0.55286830E-04  0.55157307E-04  0.54663644E-04
  0.53827164E-04  0.52670300E-04  0.51216400E-04  0.49489532E-04  0.47514308E-04
  0.45315698E-04  0.42918862E-04  0.40348985E-04  0.37631122E-04  0.34790049E-04
  0.31850125E-04  0.28835161E-04  0.25768302E-04  0.22671916E-04  0.19567494E-04
  0.16475560E-04  0.13415592E-04  0.10405948E-04  0.74638125E-05  0.46051404E-05
  0.18446199E-05 -0.80435987E-06 -0.33297298E-05 -0.57207546E-05 -0.79680364E-05
 -0.10063512E-04 -0.12000439E-04 -0.13773380E-04 -0.15378176E-04 -0.16811912E-04
 -0.18072879E-04 -0.19160535E-04 -0.20075450E-04 -0.20819257E-04 -0.21394592E-04
 -0.21805037E-04 -0.22055053E-04 -0.22149916E-04 -0.22095648E-04 -0.21898950E-04
 -0.21567127E-04 -0.21108021E-04 -0.20529939E-04 -0.19841581E-04 -0.19051971E-04
 -0.18170386E-04 -0.17206292E-04 -0.16169276E-04 -0.15068979E-04 -0.13915042E-04
 -0.12717039E-04 -0.11484427E-04 -0.10226489E-04 -0.89522885E-05 -0.76706185E-05
 -0.63899616E-05 -0.51184500E-05 -0.38638298E-05 -0.26334298E-05 -0.14341327E-05
 -0.27235182E-06  0.84599001E-06  0.19154766E-05  0.29312116E-05  0.38888274E-05
  0.47844916E-05  0.56149086E-05  0.63773189E-05  0.70694951E-05  0.76897347E-05
  0.82368496E-05  0.87101542E-05  0.91094492E-05  0.94350049E-05  0.96875409E-05
  0.98682048E-05  0.99785487E-05  0.10020504E-04  0.99963566E-05  0.99087169E-05
  0.97604941E-05  0.95548658E-05  0.92952492E-05  0.89852707E-05  0.86287363E-05
  0.82296016E-05  0.77919421E-05  0.73199235E-05  0.68177737E-05  0.62897538E-05
  0.57401314E-05  0.51731542E-05  0.45930246E-05  0.40038757E-05  0.34097487E-05
  0.28145712E-05  0.22221377E-05  0.16360907E-05  0.10599042E-05  0.49686836E-06
 -0.49924166E-07 -0.57759007E-06 -0.10834657E-05 -0.15651155E-05 -0.20203390E-05
 -0.24471762E-05 -0.28439108E-05 -0.32090727E-05 -0.35414380E-05 -0.38400284E-05
 -0.41041084E-05 -0.43331817E-05 -0.45269860E-05 -0.46854866E-05 -0.48088687E-05
 -0.48975292E-05 -0.49520669E-05 -0.49732720E-05 -0.49621150E-05 -0.49197346E-05
 -0.48474252E-05 -0.47466237E-05 -0.46188962E-05 -0.44659240E-05 -0.42894896E-05
 -0.40914625E-05 -0.38737847E-05 -0.36384570E-05 -0.33875242E-05 -0.31230617E-05
 -0.28471617E-05 -0.25619195E-05 -0.22694215E-05 -0.19717316E-05 -0.16708804E-05
 -0.13688531E-05 -0.10675792E-05 -0.76892254E-06 -0.47467176E-06 -0.18653194E-06
  0.93883212E-07  0.36505831E-06  0.62558247E-06  0.87415464E-06  0.11095881E-05
  0.13308142E-05  0.15368850E-05  0.17269756E-05  0.19003853E-05  0.20565378E-05
  0.21949812E-05  0.23153867E-05  0.24175470E-05  0.25013740E-05  0.25668951E-05
  0.26142502E-05  0.26436873E-05  0.26555573E-05  0.26503092E-05  0.26284843E-05
  0.25907101E-05  0.25376938E-05  0.24702157E-05  0.23891225E-05  0.22953196E-05
  0.21897645E-05  0.20734587E-05  0.19474410E-05  0.18127797E-05  0.16705653E-05
  0.15219029E-05  0.13679056E-05  0.12096872E-05  0.10483551E-05  0.88500424E-06
  0.72071045E-06  0.55652455E-06  0.39346662E-06  0.23252070E-06  0.74629781E-07
 -0.79308742E-07 -0.22844727E-06 -0.37199175E-06 -0.50920498E-06 -0.63940955E-06
 -0.76199023E-06 -0.87639600E-06 -0.98214161E-06 -0.10788087E-05 -0.11660465E-05
 -0.12435720E-05 -0.13111700E-05 -0.13686922E-05 -0.14160566E-05 -0.14532460E-05
 -0.14803064E-05 -0.14973448E-05 -0.15045271E-05 -0.15020754E-05 -0.14902650E-05
 -0.14694215E-05 -0.14399173E-05 -0.14021680E-05 -0.13566289E-05 -0.13037909E-05
 -0.12441768E-05 -0.11783371E-05 -0.11068459E-05 -0.10302970E-05 -0.94929927E-06
 -0.86447309E-06 -0.77644589E-06 -0.68584830E-06 -0.59331013E-06 -0.49945664E-06
 -0.40490479E-06 -0.31025970E-06 -0.21611131E-06 -0.12303113E-06 -0.31569266E-07
  0.57748381E-07  0.14442270E-06  0.22798371E-06  0.30799268E-06  0.38404401E-06
  0.45576680E-06  0.52282629E-06  0.58492494E-06  0.64180328E-06  0.69324054E-06
  0.73905501E-06  0.77910415E-06  0.81328446E-06  0.84153115E-06  0.86381754E-06
  0.88015423E-06  0.89058818E-06  0.89520142E-06  0.89410976E-06  0.88746116E-06
  0.87543409E-06  0.85823563E-06  0.83609957E-06  0.80928424E-06  0.77807038E-06
  0.74275888E-06  0.70366841E-06  0.66113309E-06  0.61550005E-06  0.56712697E-06
  0.51637969E-06  0.46362977E-06  0.40925206E-06  0.35362237E-06  0.29711511E-06
  0.24010109E-06  0.18294534E-06  0.12600498E-06  0.69627290E-07  0.14147785E-07
 -0.40111519E-07 -0.92843763E-07 -0.14375875E-06 -0.19258430E-06 -0.23906753E-06
 -0.28297589E-06 -0.32409810E-06 -0.36224497E-06 -0.39725004E-06 -0.42896999E-06
 -0.45728505E-06 -0.48209914E-06 -0.50333992E-06 -0.52095866E-06 -0.53492999E-06
 -0.54525153E-06 -0.55194336E-06 -0.55504738E-06 -0.55462655E-06 -0.55076401E-06
 -0.54356215E-06 -0.53314150E-06 -0.51963959E-06 -0.50320974E-06 -0.48401975E-06
 -0.46225056E-06 -0.43809484E-06 -0.41175556E-06 -0.38344448E-06 -0.35338074E-06
 -0.32178927E-06 -0.28889935E-06 -0.25494309E-06 -0.22015396E-06 -0.18476533E-06
 -0.14900905E-06 -0.11311407E-06 -0.77305131E-07 -0.41801454E-07 -0.68155504E-08
  0.27447935E-07  0.60793293E-07  0.93034747E-07  0.12399737E-06  0.15351790E-06
  0.18144551E-06  0.20764241E-06  0.23198445E-06  0.25436152E-06  0.27467799E-06
  0.29285292E-06  0.30882025E-06  0.32252891E-06  0.33394274E-06  0.34304047E-06
  0.34981548E-06  0.35427553E-06  0.35644240E-06  0.35635150E-06  0.35405130E-06
  0.34960280E-06  0.34307888E-06  0.33456360E-06  0.32415144E-06  0.31194653E-06
  0.29806180E-06  0.28261810E-06  0.26574328E-06  0.24757132E-06  0.22824131E-06
  0.20789656E-06  0.18668361E-06  0.16475126E-06  0.14224963E-06  0.11932923E-06
  0.96139992E-07  0.72830423E-07  0.49546690E-07  0.26431790E-07  0.36247474E-08
 -0.18740158E-07 -0.40534108E-07 -0.61634419E-07 -0.81925165E-07 -0.10129775E-06
 -0.11965140E-06 -0.13689367E-06 -0.15294075E-06 -0.16771790E-06 -0.18115965E-06
 -0.19321003E-06 -0.20382275E-06 -0.21296124E-06 -0.22059870E-06 -0.22671807E-06
 -0.23131193E-06 -0.23438237E-06 -0.23594075E-06 -0.23600750E-06 -0.23461175E-06
 -0.23179103E-06 -0.22759087E-06 -0.22206432E-06 -0.21527153E-06 -0.20727922E-06
 -0.19816015E-06 -0.18799254E-06 -0.17685950E-06 -0.16484846E-06 -0.15205046E-06
 -0.13855964E-06 -0.12447252E-06 -0.10988739E-06 -0.94903706E-07 -0.79621417E-07
 -0.64140371E-07 -0.48559705E-07 -0.32977250E-07 -0.17488964E-07 -0.21883816E-08
  0.12833908E-07  0.27490758E-07  0.41698930E-07  0.55379522E-07  0.68458371E-07
  0.80866414E-07  0.92540008E-07  0.10342122E-06  0.11345806E-06  0.12260471E-06
  0.13082166E-06  0.13807583E-06  0.14434068E-06  0.14959621E-06  0.15382899E-06
  0.15703210E-06  0.15920506E-06  0.16035369E-06  0.16048999E-06  0.15963194E-06
  0.15780326E-06  0.15503318E-06  0.15135615E-06  0.14681155E-06  0.14144332E-06
  0.13529964E-06  0.12843256E-06  0.12089760E-06  0.11275334E-06  0.10406101E-06
  0.94884097E-07  0.85287872E-07  0.75338992E-07  0.65105052E-07  0.54654166E-07
  0.44054534E-07  0.33374031E-07  0.22679796E-07  0.12037835E-07  0.15126439E-08
 -0.88331616E-08 -0.18939192E-07 -0.28747612E-07 -0.38203448E-07 -0.47254869E-07
 -0.55853449E-07 -0.63954402E-07 -0.71516784E-07 -0.78503682E-07 -0.84882360E-07
 -0.90624389E-07 -0.95705740E-07 -0.10010686E-06 -0.10381269E-06 -0.10681271E-06
 -0.10910090E-06 -0.11067571E-06 -0.11153996E-06 -0.11170080E-06 -0.11116954E-06
 -0.10996154E-06 -0.10809603E-06 -0.10559592E-06 -0.10248761E-06 -0.98800769E-07
 -0.94568084E-07 -0.89825018E-07 -0.84609542E-07 -0.78961861E-07 -0.72924130E-07
 -0.66540164E-07 -0.59855141E-07 -0.52915304E-07 -0.45767663E-07 -0.38459689E-07
 -0.31039024E-07 -0.23553181E-07 -0.16049264E-07 -0.85736810E-08 -0.11718762E-08
  0.61119303E-08  0.13234992E-07  0.20156272E-07  0.26836663E-07  0.33239193E-07
  0.39329216E-07  0.45074582E-07  0.50445791E-07  0.55416131E-07  0.59961790E-07
  0.64061954E-07  0.67698885E-07  0.70857975E-07  0.73527785E-07  0.75700059E-07
  0.77369725E-07  0.78534868E-07  0.79196695E-07  0.79359470E-07  0.79030440E-07
  0.78219744E-07  0.76940297E-07  0.75207672E-07  0.73039955E-07  0.70457599E-07
  0.67483257E-07  0.64141608E-07  0.60459175E-07  0.56464132E-07  0.52186103E-07
  0.47655963E-07  0.42905624E-07  0.37967827E-07  0.32875928E-07  0.27663683E-07
  0.22365039E-07  0.17013921E-07  0.11644026E-07  0.62886240E-08  0.98035848E-09
 -0.42489404E-08 -0.93684373E-08 -0.14348464E-07 -0.19160680E-07 -0.23778227E-07
 -0.28175866E-07 -0.32330105E-07 -0.36219319E-07 -0.39823844E-07 -0.43126075E-07
 -0.46110532E-07 -0.48763927E-07 -0.51075207E-07 -0.53035585E-07 -0.54638561E-07
 -0.55879923E-07 -0.56757739E-07 -0.57272329E-07 -0.57426230E-07 -0.57224148E-07
 -0.56672888E-07 -0.55781290E-07 -0.54560132E-07 -0.53022045E-07 -0.51181396E-07
 -0.49054183E-07 -0.46657907E-07 -0.44011441E-07 -0.41134899E-07 -0.38049487E-07
 -0.34777363E-07 -0.31341484E-07 -0.27765453E-07 -0.24073368E-07 -0.20289666E-07
 -0.16438967E-07 -0.12545925E-07 -0.86350721E-08 -0.47306767E-08 -0.85659471E-09
  0.29638671E-08  0.67080858E-08  0.10354249E-07  0.13881476E-07  0.17269932E-07
  0.20500930E-07  0.23557030E-07  0.26422126E-07  0.29081523E-07  0.31522008E-07
  0.33731903E-07  0.35701119E-07  0.37421188E-07  0.38885294E-07  0.40088290E-07
  0.41026701E-07  0.41698723E-07  0.42104208E-07  0.42244641E-07  0.42123104E-07
  0.41744237E-07  0.41114183E-07  0.40240531E-07  0.39132246E-07  0.37799597E-07
  0.36254071E-07  0.34508287E-07  0.32575904E-07  0.30471520E-07  0.28210569E-07
  0.25809215E-07  0.23284245E-07  0.20652955E-07  0.17933036E-07  0.15142464E-07
  0.12299384E-07  0.94219950E-08  0.65284431E-08  0.36367075E-08  0.76449490E-09
 -0.20708645E-08 -0.48525176E-08 -0.75641838E-08 -0.10190246E-07 -0.12715838E-07
 -0.15126919E-07 -0.17410355E-07 -0.19553980E-07 -0.21546658E-07 -0.23378335E-07
 -0.25040088E-07 -0.26524159E-07 -0.27823989E-07 -0.28934238E-07 -0.29850803E-07
 -0.30570824E-07 -0.31092680E-07 -0.31415990E-07 -0.31541588E-07 -0.31471507E-07
 -0.31208949E-07 -0.30758244E-07 -0.30124814E-07 -0.29315120E-07 -0.28336610E-07
 -0.27197660E-07 -0.25907508E-07 -0.24476186E-07 -0.22914450E-07 -0.21233701E-07
 -0.19445907E-07 -0.17563525E-07 -0.15599414E-07 -0.13566755E-07 -0.11478964E-07
 -0.93496047E-08 -0.71923085E-08 -0.50206872E-08 -0.28482512E-08 -0.68832844E-09
  0.14460143E-08  0.35420475E-08  0.55874520E-08  0.75703881E-08  0.94795614E-08
  0.11304284E-07  0.13034532E-07  0.14660996E-07  0.16175129E-07  0.17569189E-07
  0.18836272E-07  0.19970348E-07  0.20966280E-07  0.21819847E-07  0.22527754E-07
  0.23087645E-07  0.23498096E-07  0.23758621E-07  0.23869653E-07  0.23832537E-07
  0.23649502E-07  0.23323641E-07  0.22858877E-07  0.22259931E-07  0.21532279E-07
  0.20682110E-07  0.19716280E-07  0.18642260E-07  0.17468081E-07  0.16202279E-07
  0.14853837E-07  0.13432120E-07  0.11946819E-07  0.10407883E-07  0.88254569E-08
  0.72098151E-08  0.55712995E-08  0.39202539E-08  0.22669616E-08  0.62158331E-09
 -0.10059033E-08 -0.26057620E-08 -0.41685539E-08 -0.56851915E-08 -0.71469892E-08
 -0.85457109E-08 -0.98736147E-08 -0.11123493E-07 -0.12288710E-07 -0.13363235E-07
 -0.14341670E-07 -0.15219275E-07 -0.15991988E-07 -0.16656443E-07 -0.17209977E-07
 -0.17650642E-07 -0.17977205E-07 -0.18189145E-07 -0.18286649E-07 -0.18270603E-07
 -0.18142574E-07 -0.17904792E-07 -0.17560132E-07 -0.17112083E-07 -0.16564722E-07
 -0.15922679E-07 -0.15191107E-07 -0.14375635E-07 -0.13482335E-07 -0.12517678E-07
 -0.11488487E-07 -0.10401891E-07 -0.92652805E-08 -0.80862565E-08 -0.68725824E-08
 -0.56321344E-08 -0.43728519E-08 -0.31026886E-08 -0.18295637E-08 -0.56131359E-09
  0.69435411E-09  0.19299065E-08  0.31380291E-08  0.43116674E-08  0.54440667E-08
  0.65288098E-08  0.75598516E-08  0.85315512E-08  0.94387016E-08  0.10276556E-07
  0.11040849E-07  0.11727821E-07  0.12334231E-07  0.12857370E-07  0.13295073E-07
  0.13645724E-07  0.13908258E-07  0.14082165E-07  0.14167479E-07  0.14164779E-07
  0.14075171E-07  0.13900282E-07  0.13642238E-07  0.13303647E-07  0.12887578E-07
  0.12397536E-07  0.11837432E-07  0.11211561E-07  0.10524565E-07  0.97814013E-08
  0.89873121E-08  0.81477851E-08  0.72685186E-08  0.63553840E-08  0.54143881E-08
  0.44516340E-08  0.34732838E-08  0.24855193E-08  0.14945047E-08  0.50634894E-09
 -0.47293086E-09 -0.14374450E-08 -0.23814654E-08 -0.32994588E-08 -0.41861182E-08
 -0.50363921E-08 -0.58455128E-08 -0.66090213E-08 -0.73227917E-08 -0.79830514E-08
 -0.85864005E-08 -0.91298279E-08 -0.96107249E-08 -0.10026896E-07 -0.10376569E-07
 kinetic energy density (partial)
  0.20835504E+03  0.20828036E+03  0.20805646E+03  0.20768382E+03  0.20716321E+03
  0.20649571E+03  0.20568271E+03  0.20472590E+03  0.20362725E+03  0.20238902E+03
  0.20101375E+03  0.19950424E+03  0.19786357E+03  0.19609504E+03  0.19420220E+03
  0.19218884E+03  0.19005893E+03  0.18781665E+03  0.18546639E+03  0.18301267E+03
  0.18046020E+03  0.17781381E+03  0.17507846E+03  0.17225923E+03  0.16936128E+03
  0.16638985E+03  0.16335026E+03  0.16024787E+03  0.15708805E+03  0.15387623E+03
  0.15061780E+03  0.14731817E+03  0.14398270E+03  0.14061674E+03  0.13722555E+03
  0.13381436E+03  0.13038829E+03  0.12695239E+03  0.12351160E+03  0.12007077E+03
  0.11663459E+03  0.11320766E+03  0.10979442E+03  0.10639916E+03  0.10302604E+03
  0.99679032E+02  0.96361963E+02  0.93078483E+02  0.89832071E+02  0.86626025E+02
  0.83463466E+02  0.80347331E+02  0.77280372E+02  0.74265159E+02  0.71304074E+02
  0.68399315E+02  0.65552897E+02  0.62766650E+02  0.60042224E+02  0.57381093E+02
  0.54784551E+02  0.52253723E+02  0.49789562E+02  0.47392858E+02  0.45064240E+02
  0.42804181E+02  0.40613001E+02  0.38490877E+02  0.36437844E+02  0.34453799E+02
  0.32538514E+02  0.30691635E+02  0.28912689E+02  0.27201094E+02  0.25556161E+02
  0.23977101E+02  0.22463033E+02  0.21012989E+02  0.19625917E+02  0.18300694E+02
  0.17036125E+02  0.15830955E+02  0.14683869E+02  0.13593503E+02  0.12558445E+02
  0.11577245E+02  0.10648418E+02  0.97704471E+01  0.89417938E+01  0.81608982E+01
  0.74261859E+01  0.67360722E+01  0.60889662E+01  0.54832751E+01  0.49174080E+01
  0.43897800E+01  0.38988154E+01  0.34429512E+01  0.30206401E+01  0.26303538E+01
  0.22705855E+01  0.19398523E+01  0.16366980E+01  0.13596948E+01  0.11074456E+01
  0.87858565E+00  0.67178422E+00  0.48574594E+00  0.31921212E+00  0.17096183E+00
  0.39812801E-01 -0.75377769E-01 -0.17571264E+00 -0.26225402E+00 -0.33602329E+00
 -0.39800073E+00 -0.44912553E+00 -0.49029577E+00 -0.52236862E+00 -0.54616060E+00
 -0.56244795E+00 -0.57196711E+00 -0.57541524E+00 -0.57345089E+00 -0.56669468E+00
 -0.55573011E+00 -0.54110437E+00 -0.52332928E+00 -0.50288217E+00 -0.48020696E+00
 -0.45571513E+00 -0.42978682E+00 -0.40277192E+00 -0.37499119E+00 -0.34673741E+00
 -0.31827653E+00 -0.28984883E+00 -0.26167011E+00 -0.23393286E+00 -0.20680741E+00
 -0.18044314E+00 -0.15496957E+00 -0.13049761E+00 -0.10712057E+00 -0.84915366E-01
 -0.63943573E-01 -0.44252494E-01 -0.25876215E-01 -0.88366140E-02  0.68556445E-02
  0.21200154E-01  0.34205840E-01  0.45890064E-01  0.56277765E-01  0.65400637E-01
  0.73296336E-01  0.80007729E-01  0.85582175E-01  0.90070849E-01  0.93528093E-01
  0.96010816E-01  0.97577916E-01  0.98289755E-01  0.98207654E-01  0.97393432E-01
  0.95908984E-01  0.93815878E-01  0.91175003E-01  0.88046237E-01  0.84488154E-01
  0.80557756E-01  0.76310236E-01  0.71798777E-01  0.67074366E-01  0.62185643E-01
  0.57178774E-01  0.52097343E-01  0.46982274E-01  0.41871767E-01  0.36801261E-01
  0.31803411E-01  0.26908081E-01  0.22142365E-01  0.17530606E-01  0.13094442E-01
  0.88528613E-02  0.48222665E-02  0.10165515E-02 -0.25528120E-02 -0.58766813E-02
 -0.89481411E-02 -0.11762397E-01 -0.14316661E-01 -0.16610039E-01 -0.18643408E-01
 -0.20419294E-01 -0.21941748E-01 -0.23216224E-01 -0.24249453E-01 -0.25049318E-01
 -0.25624730E-01 -0.25985512E-01 -0.26142277E-01 -0.26106309E-01 -0.25889459E-01
 -0.25504030E-01 -0.24962671E-01 -0.24278285E-01 -0.23463926E-01 -0.22532710E-01
 -0.21497732E-01 -0.20371987E-01 -0.19168289E-01 -0.17899208E-01 -0.16577007E-01
 -0.15213577E-01 -0.13820394E-01 -0.12408464E-01 -0.10988288E-01 -0.95698218E-02
 -0.81624485E-02 -0.67749510E-02 -0.54154923E-02 -0.40916000E-02 -0.28101553E-02
 -0.15773864E-02 -0.39886651E-03  0.72048473E-03  0.17763955E-02  0.27652328E-02
  0.36839902E-02  0.45302720E-02  0.53022756E-02  0.59987705E-02  0.66190753E-02
  0.71630325E-02  0.76309821E-02  0.80237328E-02  0.83425325E-02  0.85890380E-02
  0.87652830E-02  0.88736459E-02  0.89168179E-02  0.88977699E-02  0.88197199E-02
  0.86861005E-02  0.85005271E-02  0.82667658E-02  0.79887032E-02  0.76703160E-02
  0.73156421E-02  0.69287525E-02  0.65137246E-02  0.60746169E-02  0.56154446E-02
  0.51401571E-02  0.46526166E-02  0.41565790E-02  0.36556751E-02  0.31533950E-02
  0.26530725E-02  0.21578727E-02  0.16707797E-02  0.11945875E-02  0.73189104E-03
  0.28508001E-03 -0.14366669E-03 -0.55238445E-03 -0.93932519E-03 -0.13029582E-02
 -0.16419696E-02 -0.19552605E-02 -0.22419442E-02 -0.25013417E-02 -0.27329770E-02
 -0.29365704E-02 -0.31120318E-02 -0.32594528E-02 -0.33790979E-02 -0.34713953E-02
 -0.35369271E-02 -0.35764189E-02 -0.35907293E-02 -0.35808384E-02 -0.35478369E-02
 -0.34929144E-02 -0.34173477E-02 -0.33224897E-02 -0.32097572E-02 -0.30806201E-02
 -0.29365895E-02 -0.27792070E-02 -0.26100340E-02 -0.24306410E-02 -0.22425978E-02
 -0.20474638E-02 -0.18467788E-02 -0.16420544E-02 -0.14347657E-02 -0.12263441E-02
 -0.10181700E-02 -0.81156627E-03 -0.60779290E-03 -0.40804141E-03 -0.21343046E-03
 -0.25001852E-04  0.15628276E-03  0.32954460E-03  0.49398988E-03  0.64891127E-03
  0.79368888E-03  0.92779059E-03  0.10507719E-02  0.11622751E-02  0.12620285E-02
  0.13498441E-02  0.14256161E-02  0.14893180E-02  0.15410000E-02  0.15807856E-02
  0.16088679E-02  0.16255060E-02  0.16310209E-02  0.16257910E-02  0.16102478E-02
  0.15848710E-02  0.15501843E-02  0.15067498E-02  0.14551636E-02  0.13960508E-02
  0.13300607E-02  0.12578615E-02  0.11801361E-02  0.10975768E-02  0.10108810E-02
  0.92074700E-03  0.82786904E-03  0.73293373E-03  0.63661585E-03  0.53957475E-03
  0.44245079E-03  0.34586214E-03  0.25040173E-03  0.15663455E-03  0.65095164E-04
 -0.23714500E-04 -0.10932708E-03 -0.19131143E-03 -0.26927401E-03 -0.34285994E-03
 -0.41175391E-03 -0.47568067E-03 -0.53440538E-03 -0.58773362E-03 -0.63551122E-03
 -0.67762383E-03 -0.71399622E-03 -0.74459146E-03 -0.76940981E-03 -0.78848749E-03
 -0.80189519E-03 -0.80973655E-03 -0.81214635E-03 -0.80928869E-03 -0.80135496E-03
 -0.78856182E-03 -0.77114897E-03 -0.74937696E-03 -0.72352489E-03 -0.69388808E-03
 -0.66077574E-03 -0.62450863E-03 -0.58541671E-03 -0.54383679E-03 -0.50011029E-03
 -0.45458098E-03 -0.40759277E-03 -0.35948764E-03 -0.31060361E-03 -0.26127274E-03
 -0.21181934E-03 -0.16255822E-03 -0.11379303E-03 -0.65814813E-04 -0.18900553E-04
  0.26688029E-04  0.70705622E-04  0.11292430E-03  0.15313440E-03  0.19114521E-03
  0.22678554E-03  0.25990422E-03  0.29037033E-03  0.31807346E-03  0.34292368E-03
  0.36485151E-03  0.38380771E-03  0.39976294E-03  0.41270738E-03  0.42265015E-03
  0.42961871E-03  0.43365814E-03  0.43483030E-03  0.43321299E-03  0.42889897E-03
  0.42199495E-03  0.41262052E-03  0.40090704E-03  0.38699647E-03  0.37104021E-03
  0.35319789E-03  0.33363614E-03  0.31252735E-03  0.29004850E-03  0.26637987E-03
  0.24170389E-03  0.21620396E-03  0.19006328E-03  0.16346372E-03  0.13658478E-03
  0.10960256E-03  0.82688740E-04  0.56009692E-04  0.29725598E-04  0.39896497E-05
 -0.21052691E-04 -0.45264363E-04 -0.68517308E-04 -0.90692998E-04 -0.11168289E-03
 -0.13138883E-03 -0.14972332E-03 -0.16660980E-03 -0.18198279E-03 -0.19578798E-03
 -0.20798226E-03 -0.21853367E-03 -0.22742128E-03 -0.23463504E-03 -0.24017552E-03
 -0.24405359E-03 -0.24629014E-03 -0.24691561E-03 -0.24596960E-03 -0.24350031E-03
 -0.23956409E-03 -0.23422482E-03 -0.22755332E-03 -0.21962678E-03 -0.21052803E-03
 -0.20034496E-03 -0.18916981E-03 -0.17709849E-03 -0.16422991E-03 -0.15066529E-03
 -0.13650745E-03 -0.12186019E-03 -0.10682758E-03 -0.91513375E-04 -0.76020313E-04
 -0.60449570E-04 -0.44900164E-04 -0.29468403E-04 -0.14247369E-04  0.67356873E-06
  0.15209201E-04  0.29278898E-04  0.42806978E-04  0.55723047E-04  0.67962294E-04
  0.79465741E-04  0.90180456E-04  0.10005972E-03  0.10906317E-03  0.11715685E-03
  0.12431330E-03  0.13051151E-03  0.13573694E-03  0.13998141E-03  0.14324297E-03
  0.14552583E-03  0.14684010E-03  0.14720163E-03  0.14663173E-03  0.14515697E-03
  0.14280879E-03  0.13962329E-03  0.13564081E-03  0.13090564E-03  0.12546560E-03
  0.11937169E-03  0.11267772E-03  0.10543985E-03  0.97716257E-04  0.89566681E-04
  0.81052046E-04  0.72234052E-04  0.63174778E-04  0.53936293E-04  0.44580280E-04
  0.35167664E-04  0.25758258E-04  0.16410425E-04  0.71807582E-05 -0.18762292E-05
 -0.10708382E-04 -0.19266170E-04 -0.27502926E-04 -0.35375063E-04 -0.42842270E-04
 -0.49867681E-04 -0.56418019E-04 -0.62463713E-04 -0.67978995E-04 -0.72941966E-04
 -0.77334643E-04 -0.81142972E-04 -0.84356829E-04 -0.86969986E-04 -0.88980058E-04
 -0.90388434E-04 -0.91200176E-04 -0.91423905E-04 -0.91071668E-04 -0.90158782E-04
 -0.88703670E-04 -0.86727673E-04 -0.84254855E-04 -0.81311794E-04 -0.77927359E-04
 -0.74132487E-04 -0.69959941E-04 -0.65444073E-04 -0.60620576E-04 -0.55526235E-04
 -0.50198677E-04 -0.44676123E-04 -0.38997144E-04 -0.33200410E-04 -0.27324458E-04
 -0.21407454E-04 -0.15486974E-04 -0.95997806E-05 -0.37816209E-05  0.19329717E-05
  0.75108618E-05  0.12920483E-04  0.18131998E-04  0.23117441E-04  0.27850849E-04
  0.32308378E-04  0.36468400E-04  0.40311588E-04  0.43820986E-04  0.46982057E-04
  0.49782725E-04  0.52213390E-04  0.54266937E-04  0.55938726E-04  0.57226565E-04
  0.58130670E-04  0.58653618E-04  0.58800272E-04  0.58577711E-04  0.57995133E-04
  0.57063756E-04  0.55796708E-04  0.54208903E-04  0.52316916E-04  0.50138843E-04
  0.47694158E-04  0.45003568E-04  0.42088860E-04  0.38972742E-04  0.35678686E-04
  0.32230771E-04  0.28653522E-04  0.24971746E-04  0.21210383E-04  0.17394344E-04
  0.13548360E-04  0.96968386E-05  0.58637166E-05  0.20723263E-05 -0.16547360E-05
 -0.52957328E-05 -0.88299004E-05 -0.12237557E-04 -0.15500199E-04 -0.18600592E-04
 -0.21522849E-04 -0.24252503E-04 -0.26776561E-04 -0.29083560E-04 -0.31163602E-04
 -0.33008383E-04 -0.34611214E-04 -0.35967028E-04 -0.37072379E-04 -0.37925428E-04
 -0.38525927E-04 -0.38875183E-04 -0.38976024E-04 -0.38832747E-04 -0.38451068E-04
 -0.37838051E-04 -0.37002046E-04 -0.35952608E-04 -0.34700415E-04 -0.33257184E-04
 -0.31635572E-04 -0.29849087E-04 -0.27911987E-04 -0.25839175E-04 -0.23646098E-04
 -0.21348641E-04 -0.18963022E-04 -0.16505685E-04 -0.13993199E-04 -0.11442146E-04
 -0.88690290E-05 -0.62901661E-05 -0.37215965E-05 -0.11789878E-05  0.13224529E-05
  0.37680632E-05  0.61438045E-05  0.84363361E-05  0.10633083E-04  0.12722299E-04
  0.14693121E-04  0.16535621E-04  0.18240847E-04  0.19800862E-04  0.21208768E-04
  0.22458735E-04  0.23546012E-04  0.24466937E-04  0.25218940E-04  0.25800535E-04
  0.26211314E-04  0.26451924E-04  0.26524047E-04  0.26430366E-04  0.26174537E-04
  0.25761142E-04  0.25195645E-04  0.24484347E-04  0.23634324E-04  0.22653376E-04
  0.21549965E-04  0.20333146E-04  0.19012507E-04  0.17598097E-04  0.16100357E-04
  0.14530050E-04  0.12898186E-04  0.11215955E-04  0.94946498E-05  0.77456005E-05
  0.59801006E-05  0.42093402E-05  0.24443392E-05  0.69588305E-06 -0.10255391E-05
 -0.27097932E-05 -0.43471557E-05 -0.59283657E-05 -0.74446735E-05 -0.88878846E-05
 -0.10250400E-04 -0.11525252E-04 -0.12706136E-04 -0.13787435E-04 -0.14764247E-04
 -0.15632395E-04 -0.16388446E-04 -0.17029714E-04 -0.17554268E-04 -0.17960926E-04
 -0.18249251E-04 -0.18419541E-04 -0.18472814E-04 -0.18410788E-04 -0.18235860E-04
 -0.17951076E-04 -0.17560106E-04 -0.17067207E-04 -0.16477189E-04 -0.15795372E-04
 -0.15027551E-04 -0.14179945E-04 -0.13259159E-04 -0.12272129E-04 -0.11226083E-04
 -0.10128482E-04 -0.89869785E-05 -0.78093612E-05 -0.66035078E-05 -0.53773340E-05
 -0.41387451E-05 -0.28955872E-05 -0.16556008E-05 -0.42637512E-06  0.78469609E-06
  0.19704560E-05  0.31240246E-05  0.42388361E-05  0.53086738E-05  0.63277021E-05
  0.72904958E-05  0.81920664E-05  0.90278850E-05  0.97939027E-05  0.10486567E-04
  0.11102835E-04  0.11640184E-04  0.12096617E-04  0.12470670E-04  0.12761405E-04
  0.12968414E-04  0.13091808E-04  0.13132211E-04  0.13090746E-04  0.12969018E-04
  0.12769101E-04  0.12493512E-04  0.12145193E-04  0.11727484E-04  0.11244095E-04
  0.10699079E-04  0.10096800E-04  0.94419040E-05  0.87392820E-05  0.79940391E-05
  0.72114589E-05  0.63969681E-05  0.55561008E-05  0.46944635E-05  0.38176993E-05
  0.29314527E-05  0.20413352E-05  0.11528915E-05  0.27156677E-06 -0.59732538E-06
 -0.14486329E-05 -0.22773945E-05 -0.30788666E-05 -0.38485492E-05 -0.45822095E-05
 -0.52759030E-05 -0.59259938E-05 -0.65291711E-05 -0.70824650E-05 -0.75832587E-05
 -0.80292992E-05 -0.84187053E-05 -0.87499729E-05 -0.90219787E-05 -0.92339806E-05
 -0.93856165E-05 -0.94769006E-05 -0.95082170E-05 -0.94803119E-05 -0.93942833E-05
 -0.92515686E-05 -0.90539305E-05 -0.88034415E-05 -0.85024659E-05 -0.81536409E-05
 -0.77598566E-05 -0.73242339E-05 -0.68501020E-05 -0.63409749E-05 -0.58005271E-05
 -0.52325683E-05 -0.46410183E-05 -0.40298813E-05 -0.34032201E-05 -0.27651301E-05
 -0.21197141E-05 -0.14710570E-05 -0.82320100E-06 -0.18012145E-06  0.45429620E-06
  0.10762789E-05  0.16821875E-05  0.22685368E-05  0.28320144E-05  0.33694988E-05
  0.38780750E-05  0.43550498E-05  0.47979643E-05  0.52046059E-05  0.55730178E-05
  0.59015075E-05  0.61886525E-05  0.64333056E-05  0.66345974E-05  0.67919376E-05
  0.69050145E-05  0.69737925E-05  0.69985083E-05  0.69796653E-05  0.69180270E-05
  0.68146078E-05  0.66706633E-05  0.64876794E-05  0.62673592E-05  0.60116097E-05
  0.57225273E-05  0.54023816E-05  0.50535996E-05  0.46787481E-05  0.42805159E-05
  0.38616961E-05  0.34251668E-05  0.29738728E-05  0.25108063E-05  0.20389878E-05
  0.15614475E-05  0.10812068E-05  0.60125910E-06  0.12455292E-06 -0.34602614E-06
 -0.80767194E-06 -0.12576738E-05 -0.16934316E-05 -0.21124705E-05 -0.25124536E-05
 -0.28911947E-05 -0.32466697E-05 -0.35770259E-05 -0.38805915E-05 -0.41558832E-05
 -0.44016122E-05 -0.46166896E-05 -0.48002299E-05 -0.49515539E-05 -0.50701897E-05
 -0.51558725E-05 -0.52085437E-05 -0.52283475E-05 -0.52156282E-05 -0.51709243E-05
 -0.50949632E-05 -0.49886534E-05 -0.48530769E-05 -0.46894800E-05 -0.44992632E-05
 -0.42839704E-05 -0.40452779E-05 -0.37849817E-05 -0.35049853E-05 -0.32072862E-05
 -0.28939625E-05 -0.25671593E-05 -0.22290742E-05 -0.18819433E-05 -0.15280272E-05
 -0.11695966E-05 -0.80891805E-06 -0.44824079E-06 -0.89782651E-07  0.26428284E-06
  0.61183918E-06  0.95083906E-06  0.12793159E-05  0.15953948E-05  0.18973026E-05
  0.21833778E-05  0.24520784E-05  0.27019904E-05  0.29318344E-05  0.31404715E-05
  0.33269085E-05  0.34903020E-05  0.36299613E-05  0.37453508E-05  0.38360910E-05
  0.39019586E-05  0.39428861E-05  0.39589597E-05  0.39504170E-05  0.39176432E-05
  0.38611669E-05  0.37816552E-05  0.36799070E-05  0.35568472E-05  0.34135188E-05
  0.32510750E-05  0.30707708E-05  0.28739539E-05  0.26620552E-05  0.24365789E-05
  0.21990924E-05  0.19512158E-05  0.16946112E-05  0.14309721E-05  0.11620127E-05
  0.88945703E-06  0.61502809E-06  0.34043765E-06  0.67375715E-07 -0.20249943E-06
 -0.46757098E-06 -0.72627297E-06 -0.97709914E-06 -0.12186114E-05 -0.14494477E-05
 -0.16683294E-05 -0.18740679E-05 -0.20655709E-05 -0.22418477E-05 -0.24020138E-05
 -0.25452953E-05 -0.26710317E-05 -0.27786789E-05 -0.28678107E-05 -0.29381202E-05
 -0.29894195E-05 -0.30216403E-05 -0.30348315E-05 -0.30291587E-05 -0.30049005E-05
 -0.29624463E-05 -0.29022916E-05 -0.28250345E-05 -0.27313699E-05 -0.26220845E-05
 -0.24980506E-05 -0.23602199E-05 -0.22096162E-05 -0.20473288E-05 -0.18745043E-05
 -0.16923396E-05 -0.15020733E-05 -0.13049781E-05 -0.11023521E-05 -0.89551080E-06
 -0.68577898E-06 -0.47448212E-06 -0.26293851E-06 -0.52451208E-07  0.15569972E-06
  0.36026474E-06  0.56003214E-06  0.75383492E-06  0.94055739E-06  0.11191414E-05
  0.12885918E-05  0.14479824E-05  0.15964599E-05  0.17332489E-05  0.18576553E-05
  0.19690697E-05  0.20669698E-05  0.21509228E-05  0.22205870E-05  0.22757124E-05
  0.23161411E-05  0.23418077E-05  0.23527377E-05  0.23490468E-05  0.23309391E-05
  0.22987043E-05  0.22527152E-05  0.21934244E-05  0.21213603E-05  0.20371233E-05
  0.19413808E-05  0.18348627E-05  0.17183559E-05  0.15926988E-05  0.14587758E-05
  0.13175109E-05  0.11698619E-05  0.10168141E-05  0.85937351E-06  0.69856113E-06
  0.53540601E-06  0.37093900E-06  0.20618646E-06  0.42164007E-07 -0.12012960E-06
 -0.27971831E-06 -0.43565451E-06 -0.58702449E-06 -0.73295359E-06 -0.87261108E-06
 -0.10052148E-05 -0.11300351E-05 -0.12463990E-05 -0.13536936E-05 -0.14513687E-05
 -0.15389398E-05 -0.16159903E-05 -0.16821729E-05 -0.17372113E-05 -0.17809007E-05
 atomic pseudo charge-density
  0.40000000E+01  0.39865777E+01  0.39466377E+01  0.38811433E+01  0.37916420E+01
  0.36801845E+01  0.35492225E+01  0.34014950E+01  0.32399100E+01  0.30674335E+01
  0.28869885E+01  0.27013712E+01  0.25131849E+01  0.23247937E+01  0.21382919E+01
  0.19554911E+01  0.17779180E+01  0.16068237E+01  0.14431992E+01  0.12877965E+01
  0.11411517E+01  0.10036103E+01  0.87535141E+00  0.75641221E+00  0.64671002E+00
  0.54606322E+00  0.45420995E+00  0.37082491E+00  0.29553413E+00  0.22792794E+00
  0.16757211E+00  0.11401745E+00  0.66807917E-01  0.25487413E-01 -0.10394609E-01
 -0.41278559E-01 -0.67591068E-01 -0.89742136E-01 -0.10812299E+00 -0.12310456E+00
 -0.13503646E+00 -0.14424639E+00 -0.15104001E+00 -0.15570097E+00 -0.15849133E+00
 -0.15965211E+00 -0.15940402E+00 -0.15794831E+00 -0.15546772E+00 -0.15212749E+00
 -0.14807638E+00 -0.14344771E+00 -0.13836047E+00 -0.13292033E+00 -0.12722065E+00
 -0.12134348E+00 -0.11536052E+00 -0.10933401E+00 -0.10331755E+00 -0.97357004E-01
 -0.91491144E-01 -0.85752437E-01 -0.80167665E-01 -0.74758549E-01 -0.69542301E-01
 -0.64532148E-01 -0.59737800E-01 -0.55165888E-01 -0.50820352E-01 -0.46702805E-01
 -0.42812853E-01 -0.39148390E-01 -0.35705857E-01 -0.32480485E-01 -0.29466501E-01
 -0.26657315E-01 -0.24045694E-01 -0.21623903E-01 -0.19383840E-01 -0.17317147E-01
 -0.15415312E-01 -0.13669755E-01 -0.12071903E-01 -0.10613251E-01 -0.92854244E-02
 -0.80802145E-02 -0.69896237E-02 -0.60058937E-02 -0.51215308E-02 -0.43293255E-02
 -0.36223668E-02 -0.29940530E-02 -0.24380979E-02 -0.19485345E-02 -0.15197156E-02
 -0.11463116E-02 -0.82330733E-03 -0.54599558E-03 -0.30997057E-03 -0.11111936E-03
  0.54387372E-04  0.19010550E-03  0.29932812E-03  0.38509675E-03  0.45021276E-03
  0.49724905E-03  0.52856181E-03  0.54630218E-03  0.55242796E-03  0.54871497E-03
  0.53676838E-03  0.51803363E-03  0.49380709E-03  0.46524638E-03  0.43338033E-03
  0.39911848E-03  0.36326026E-03  0.32650372E-03  0.28945381E-03  0.25263029E-03
  0.21647518E-03  0.18135979E-03  0.14759134E-03  0.11541921E-03  0.85040745E-04
  0.56606693E-04  0.30226281E-04  0.59719222E-05 -0.16116422E-04 -0.36027206E-04
 -0.53773582E-04 -0.69389985E-04 -0.82929001E-04 -0.94458506E-04 -0.10405906E-03
 -0.11182154E-03 -0.11784501E-03 -0.12223480E-03 -0.12510074E-03 -0.12655568E-03
 -0.12671406E-03 -0.12569075E-03 -0.12359995E-03 -0.12055428E-03 -0.11666396E-03
 -0.11203618E-03 -0.10677445E-03 -0.10097817E-03 -0.94742200E-04 -0.88156578E-04
 -0.81306252E-04 -0.74270913E-04 -0.67124872E-04 -0.59936998E-04 -0.52770692E-04
 -0.45683909E-04 -0.38729216E-04 -0.31953881E-04 -0.25399987E-04 -0.19104573E-04
 -0.13099795E-04 -0.74131035E-05 -0.20674340E-05  0.29185877E-05  0.75304328E-05
  0.11757450E-04  0.15592638E-04  0.19032418E-04  0.22076404E-04  0.24727164E-04
  0.26989996E-04  0.28872695E-04  0.30385326E-04  0.31539999E-04  0.32350652E-04
  0.32832837E-04  0.33003507E-04  0.32880817E-04  0.32483927E-04  0.31832814E-04
  0.30948087E-04  0.29850816E-04  0.28562367E-04  0.27104239E-04  0.25497920E-04
  0.23764744E-04  0.21925760E-04  0.20001608E-04  0.18012403E-04  0.15977634E-04
  0.13916067E-04  0.11845655E-04  0.97834623E-05  0.77455969E-05  0.57471478E-05
  0.38021359E-05  0.19234706E-05  0.12291697E-06 -0.15889304E-05 -0.32026639E-05
 -0.47100721E-05 -0.61041411E-05 -0.73790486E-05 -0.85301498E-05 -0.95539581E-05
 -0.10448118E-04 -0.11211371E-04 -0.11843520E-04 -0.12345381E-04 -0.12718740E-04
 -0.12966293E-04 -0.13091593E-04 -0.13098990E-04 -0.12993562E-04 -0.12781054E-04
 -0.12467805E-04 -0.12060682E-04 -0.11567004E-04 -0.10994473E-04 -0.10351102E-04
 -0.96451441E-05 -0.88850170E-05 -0.80792383E-05 -0.72363555E-05 -0.63648798E-05
 -0.54732233E-05 -0.45696380E-05 -0.36621584E-05 -0.27585476E-05 -0.18662470E-05
 -0.99232994E-06 -0.14345991E-06  0.67414724E-06  0.14547563E-05  0.21931413E-05
  0.28846089E-05  0.35250176E-05  0.41107917E-05  0.46389308E-05  0.51070144E-05
  0.55132020E-05  0.58562288E-05  0.61353970E-05  0.63505627E-05  0.65021194E-05
  0.65909775E-05  0.66185401E-05  0.65866761E-05  0.64976905E-05  0.63542912E-05
  0.61595549E-05  0.59168901E-05  0.56299985E-05  0.53028363E-05  0.49395727E-05
  0.45445501E-05  0.41222417E-05  0.36772115E-05  0.32140730E-05  0.27374494E-05
  0.22519349E-05  0.17620572E-05  0.12722412E-05  0.78677566E-06  0.30978034E-06
 -0.15482310E-06 -0.60333860E-06 -0.10323203E-05 -0.14385946E-05 -0.18192788E-05
 -0.21717975E-05 -0.24938958E-05 -0.27836489E-05 -0.30394696E-05 -0.32601119E-05
 -0.34446725E-05 -0.35925882E-05 -0.37036321E-05 -0.37779053E-05 -0.38158276E-05
 -0.38181247E-05 -0.37858135E-05 -0.37201857E-05 -0.36227886E-05 -0.34954051E-05
 -0.33400317E-05 -0.31588555E-05 -0.29542301E-05 -0.27286505E-05 -0.24847277E-05
 -0.22251630E-05 -0.19527218E-05 -0.16702079E-05 -0.13804382E-05 -0.10862172E-05
 -0.79031329E-06 -0.49543528E-06 -0.20421011E-06  0.80837975E-07  0.35730694E-06
  0.62293496E-06  0.87561665E-06  0.11134176E-05  0.13345872E-05  0.15375689E-05
  0.17210098E-05  0.18837666E-05  0.20249111E-05  0.21437323E-05  0.22397380E-05
  0.23126529E-05  0.23624163E-05  0.23891767E-05  0.23932857E-05  0.23752896E-05
  0.23359196E-05  0.22760813E-05  0.21968416E-05  0.20994157E-05  0.19851524E-05
  0.18555189E-05  0.17120850E-05  0.15565060E-05  0.13905063E-05  0.12158623E-05
  0.10343849E-05  0.84790272E-06  0.65824498E-06  0.46722542E-06  0.27662610E-06
  0.88182235E-07 -0.96432316E-07 -0.27561869E-06 -0.44786563E-06 -0.61176105E-06
 -0.76600248E-06 -0.90940617E-06 -0.10409151E-05 -0.11596055E-05 -0.12646923E-05
 -0.13555325E-05 -0.14316286E-05 -0.14926287E-05 -0.15383273E-05 -0.15686631E-05
 -0.15837168E-05 -0.15837066E-05 -0.15689836E-05 -0.15400253E-05 -0.14974285E-05
 -0.14419012E-05 -0.13742537E-05 -0.12953888E-05 -0.12062916E-05 -0.11080189E-05
 -0.10016876E-05 -0.88846338E-06 -0.76954920E-06 -0.64617321E-06 -0.51957713E-06
 -0.39100463E-06 -0.26168993E-06 -0.13284673E-06 -0.56575985E-08  0.11873617E-06
  0.23924409E-06  0.35483532E-06  0.46454683E-06  0.56749076E-06  0.66286088E-06
  0.74993828E-06  0.82809602E-06  0.89680296E-06  0.95562658E-06  0.10042348E-05
  0.10423970E-05  0.10699838E-05  0.10869664E-05  0.10934144E-05  0.10894933E-05
  0.10754611E-05  0.10516635E-05  0.10185295E-05  0.97656513E-06  0.92634782E-06
  0.86851908E-06  0.80377754E-06  0.73287127E-06  0.65658987E-06  0.57575636E-06
  0.49121891E-06  0.40384252E-06  0.31450065E-06  0.22406708E-06  0.13340778E-06
  0.43373085E-07 -0.45209802E-07 -0.13154400E-06 -0.21486970E-06 -0.29447041E-06
 -0.36967874E-06 -0.43988155E-06 -0.50452456E-06 -0.56311628E-06 -0.61523130E-06
 -0.66051294E-06 -0.69867516E-06 -0.72950384E-06 -0.75285729E-06 -0.76866619E-06
 -0.77693279E-06 -0.77772948E-06 -0.77119677E-06 -0.75754063E-06 -0.73702932E-06
 -0.70998970E-06 -0.67680308E-06 -0.63790058E-06 -0.59375822E-06 -0.54489163E-06
 -0.49185048E-06 -0.43521276E-06 -0.37557887E-06 -0.31356558E-06 -0.24980003E-06
 -0.18491372E-06 -0.11953651E-06 -0.54290839E-07  0.10213919E-07  0.73386891E-07
  0.13466084E-06  0.19349698E-06  0.24938949E-06  0.30186957E-06  0.35050912E-06
  0.39492396E-06  0.43477660E-06  0.46977849E-06  0.49969185E-06  0.52433087E-06
  0.54356256E-06  0.55730693E-06  0.56553685E-06  0.56827727E-06  0.56560403E-06
  0.55764226E-06  0.54456431E-06  0.52658722E-06  0.50396998E-06  0.47701026E-06
  0.44604100E-06  0.41142663E-06  0.37355910E-06  0.33285375E-06  0.28974500E-06
  0.24468193E-06  0.19812388E-06  0.15053591E-06  0.10238442E-06  0.54132716E-07
  0.62367788E-08 -0.40858886E-07 -0.86725192E-07 -0.13095221E-06 -0.17315265E-06
 -0.21296511E-06 -0.25005694E-06 -0.28412693E-06 -0.31490750E-06 -0.34216665E-06
 -0.36570951E-06 -0.38537949E-06 -0.40105911E-06 -0.41267040E-06 -0.42017495E-06
 -0.42357360E-06 -0.42290573E-06 -0.41824822E-06 -0.40971413E-06 -0.39745100E-06
 -0.38163883E-06 -0.36248792E-06 -0.34023633E-06 -0.31514719E-06 -0.28750579E-06
 -0.25761658E-06 -0.22579994E-06 -0.19238893E-06 -0.15772595E-06 -0.12215937E-06
 -0.86040187E-07 -0.49718647E-07 -0.13541005E-07  0.22153667E-07  0.57036538E-07
  0.90791928E-07  0.12312006E-06  0.15373959E-06  0.18238997E-06  0.20883351E-06
  0.23285726E-06  0.25427458E-06  0.27292648E-06  0.28868261E-06  0.30144207E-06
  0.31113384E-06  0.31771695E-06  0.32118039E-06  0.32154272E-06  0.31885140E-06
  0.31318189E-06  0.30463646E-06  0.29334283E-06  0.27945252E-06  0.26313906E-06
  0.24459602E-06  0.22403482E-06  0.20168251E-06  0.17777935E-06  0.15257633E-06
  0.12633270E-06  0.99313318E-07  0.71786140E-07  0.44019613E-07  0.16280158E-07
 -0.11170310E-07 -0.38076764E-07 -0.64193365E-07 -0.89285620E-07 -0.11313241E-06
 -0.13552787E-06 -0.15628307E-06 -0.17522752E-06 -0.19221052E-06 -0.20710224E-06
 -0.21979462E-06 -0.23020204E-06 -0.23826179E-06 -0.24393430E-06 -0.24720317E-06
 -0.24807490E-06 -0.24657857E-06 -0.24276514E-06 -0.23670665E-06 -0.22849526E-06
 -0.21824199E-06 -0.20607547E-06 -0.19214040E-06 -0.17659596E-06 -0.15961408E-06
 -0.14137764E-06 -0.12207857E-06 -0.10191591E-06 -0.81093788E-07 -0.59819486E-07
 -0.38301386E-07 -0.16747007E-07  0.46389382E-08  0.25656431E-07  0.46111962E-07
  0.65820256E-07  0.84605894E-07  0.10230482E-06  0.11876572E-06  0.13385124E-06
  0.14743910E-06  0.15942300E-06  0.16971338E-06  0.17823805E-06  0.18494256E-06
  0.18979049E-06  0.19276351E-06  0.19386128E-06  0.19310120E-06  0.19051798E-06
  0.18616304E-06  0.18010382E-06  0.17242285E-06  0.16321682E-06  0.15259538E-06
  0.14067999E-06  0.12760255E-06  0.11350404E-06  0.98533033E-07  0.82844184E-07
  0.66596694E-07  0.49952735E-07  0.33075874E-07  0.16129513E-07 -0.72465324E-09
 -0.17328139E-07 -0.33527119E-07 -0.49173812E-07 -0.64127789E-07 -0.78257197E-07
 -0.91439880E-07 -0.10356439E-06 -0.11453090E-06 -0.12425196E-06 -0.13265316E-06
 -0.13967366E-06 -0.14526653E-06 -0.14939904E-06 -0.15205274E-06 -0.15322347E-06
 -0.15292112E-06 -0.15116943E-06 -0.14800550E-06 -0.14347929E-06 -0.13765294E-06
 -0.13060004E-06 -0.12240475E-06 -0.11316085E-06 -0.10297075E-06 -0.91944386E-07
 -0.80198063E-07 -0.67853283E-07 -0.55035515E-07 -0.41872961E-07 -0.28495302E-07
 -0.15032454E-07 -0.16133352E-08  0.11635336E-07  0.24590209E-07  0.37132420E-07
  0.49148656E-07  0.60532143E-07  0.71183572E-07  0.81011928E-07  0.89935244E-07
  0.97881244E-07  0.10478790E-06  0.11060388E-06  0.11528886E-06  0.11881382E-06
  0.12116109E-06  0.12232439E-06  0.12230878E-06  0.12113038E-06  0.11881613E-06
  0.11540336E-06  0.11093929E-06  0.10548050E-06  0.99092190E-07  0.91847517E-07
  0.83826762E-07  0.75116481E-07  0.65808606E-07  0.55999498E-07  0.45788981E-07
  0.35279347E-07  0.24574360E-07  0.13778250E-07  0.29947206E-08 -0.76740207E-08
 -0.18128214E-07 -0.28271459E-07 -0.38011579E-07 -0.47261440E-07 -0.55939707E-07
 -0.63971541E-07 -0.71289215E-07 -0.77832665E-07 -0.83549956E-07 -0.88397669E-07
 -0.92341195E-07 -0.95354951E-07 -0.97422500E-07 -0.98536589E-07 -0.98699097E-07
 -0.97920896E-07 -0.96221633E-07 -0.93629426E-07 -0.90180493E-07 -0.85918699E-07
 -0.80895042E-07 -0.75167082E-07 -0.68798307E-07 -0.61857456E-07 -0.54417806E-07
 -0.46556413E-07 -0.38353339E-07 -0.29890854E-07 -0.21252631E-07 -0.12522934E-07
 -0.37858156E-08  0.48756775E-08  0.13380276E-07  0.21649236E-07  0.29607050E-07
  0.37182121E-07  0.44307392E-07  0.50920920E-07  0.56966402E-07  0.62393631E-07
  0.67158897E-07  0.71225322E-07  0.74563117E-07  0.77149777E-07  0.78970206E-07
  0.80016760E-07  0.80289232E-07  0.79794755E-07  0.78547650E-07  0.76569190E-07
  0.73887320E-07  0.70536305E-07  0.66556328E-07  0.61993032E-07  0.56897024E-07
  0.51323331E-07  0.45330824E-07  0.38981613E-07  0.32340417E-07  0.25473921E-07
  0.18450117E-07  0.11337647E-07  0.42051412E-08 -0.28794280E-08 -0.98493841E-08
 -0.16639961E-07 -0.23188892E-07 -0.29436970E-07 -0.35328568E-07 -0.40812125E-07
 -0.45840579E-07 -0.50371762E-07 -0.54368736E-07 -0.57800081E-07 -0.60640121E-07
 -0.62869100E-07 -0.64473297E-07 -0.65445078E-07 -0.65782899E-07 -0.65491242E-07
 -0.64580506E-07 -0.63066827E-07 -0.60971865E-07 -0.58322529E-07 -0.55150654E-07
 -0.51492651E-07 -0.47389095E-07 -0.42884300E-07 -0.38025850E-07 -0.32864112E-07
 -0.27451723E-07 -0.21843067E-07 -0.16093737E-07 -0.10259996E-07 -0.43982344E-08
  0.14355627E-08  0.71863441E-08  0.12800501E-07  0.18226358E-07  0.23414641E-07
  0.28318911E-07  0.32895976E-07  0.37106258E-07  0.40914127E-07  0.44288191E-07
  0.47201541E-07  0.49631959E-07  0.51562064E-07  0.52979429E-07  0.53876634E-07
  0.54251276E-07  0.54105940E-07  0.53448106E-07  0.52290030E-07  0.50648562E-07
  0.48544941E-07  0.46004535E-07  0.43056558E-07  0.39733743E-07  0.36071996E-07
  0.32110014E-07  0.27888888E-07  0.23451687E-07  0.18843027E-07  0.14108626E-07
  0.92948675E-08  0.44483443E-08 -0.38457840E-09 -0.51582018E-08 -0.98279172E-08
 -0.14350616E-07 -0.18685080E-07 -0.22792350E-07 -0.26636066E-07 -0.30182785E-07
 -0.33402261E-07 -0.36267695E-07 -0.38755949E-07 -0.40847725E-07 -0.42527701E-07
 -0.43784631E-07 -0.44611406E-07 -0.45005075E-07 -0.44966822E-07 -0.44501911E-07
 -0.43619591E-07 -0.42332959E-07 -0.40658796E-07 -0.38617367E-07 -0.36232185E-07
 -0.33529757E-07 -0.30539298E-07 -0.27292420E-07 -0.23822813E-07 -0.20165895E-07
 -0.16358462E-07 -0.12438321E-07 -0.84439245E-08 -0.44139948E-08 -0.38715706E-09
  0.35984264E-08  0.75054122E-08  0.11297620E-07  0.14940364E-07  0.18400759E-07
  0.21648020E-07  0.24653721E-07  0.27392046E-07  0.29839999E-07  0.31977589E-07
  0.33787991E-07  0.35257666E-07  0.36376450E-07  0.37137619E-07  0.37537909E-07
  0.37577509E-07  0.37260025E-07  0.36592399E-07  0.35584817E-07  0.34250568E-07
  0.32605889E-07  0.30669776E-07  0.28463775E-07  0.26011753E-07  0.23339640E-07
  0.20475168E-07  0.17447585E-07  0.14287364E-07  0.11025901E-07  0.76952074E-08
  0.43276014E-08  0.95539922E-09 -0.23893908E-08 -0.56753669E-08 -0.88720247E-08
 -0.11950035E-07 -0.14881510E-07 -0.17640250E-07 -0.20201972E-07 -0.22544524E-07
 -0.24648063E-07 -0.26495225E-07 -0.28071260E-07 -0.29364144E-07 -0.30364661E-07
 -0.31066465E-07 -0.31466104E-07 -0.31563026E-07 -0.31359549E-07 -0.30860813E-07
 -0.30074696E-07 -0.29011715E-07 -0.27684894E-07 -0.26109618E-07 -0.24303457E-07
 -0.22285982E-07 -0.20078552E-07 -0.17704100E-07 -0.15186893E-07 -0.12552291E-07
 -0.98264954E-08 -0.70362916E-08 -0.42087888E-08 -0.13711612E-08  0.14496101E-08
  0.42269901E-08  0.69351355E-08  0.95491319E-08  0.12045220E-07  0.14401006E-07
  0.16595662E-07  0.18610102E-07  0.20427146E-07  0.22031661E-07  0.23410684E-07
  0.24553519E-07  0.25451815E-07  0.26099624E-07  0.26493423E-07  0.26632132E-07
  0.26517089E-07  0.26152020E-07  0.25542974E-07  0.24698245E-07  0.23628266E-07
  0.22345494E-07  0.20864267E-07  0.19200649E-07  0.17372264E-07  0.15398111E-07
  0.13298372E-07  0.11094206E-07  0.88075432E-08  0.64608682E-08  0.40770010E-08
  0.16788790E-08 -0.71066103E-09 -0.30690973E-08 -0.53744330E-08 -0.76053985E-08
 -0.97416452E-08 -0.11763929E-07 -0.13654278E-07 -0.15396156E-07 -0.16974594E-07
 -0.18376325E-07 -0.19589886E-07 -0.20605711E-07 -0.21416199E-07 -0.22015771E-07
 -0.22400896E-07 -0.22570106E-07 -0.22523988E-07 -0.22265159E-07 -0.21798218E-07
 -0.21129684E-07 -0.20267914E-07 -0.19223007E-07 -0.18006686E-07 -0.16632178E-07
 -0.15114066E-07 -0.13468142E-07 -0.11711246E-07 -0.98610957E-08 -0.79361089E-08
 -0.59552253E-08 -0.39377210E-08 -0.19030235E-08  0.12947253E-09  0.21405877E-08
  0.41115363E-08  0.60240990E-08  0.78607894E-08  0.96050108E-08  0.11241205E-07
  0.12754986E-07  0.14133267E-07  0.15364369E-07  0.16438116E-07  0.17345916E-07
  0.18080829E-07  0.18637614E-07  0.19012761E-07  0.19204509E-07  0.19212846E-07
  0.19039488E-07  0.18687849E-07  0.18162994E-07  0.17471570E-07  0.16621732E-07
  0.15623051E-07  0.14486408E-07  0.13223881E-07  0.11848618E-07  0.10374701E-07
  0.88170072E-08  0.71910591E-08  0.55128719E-08  0.37987983E-08  0.20653706E-08
  0.32914233E-09 -0.13934677E-08 -0.30863295E-08 -0.47337509E-08 -0.63206208E-08
 -0.78325462E-08 -0.92559808E-08 -0.10578344E-07 -0.11788132E-07 -0.12875014E-07
 -0.13829917E-07 -0.14645103E-07 -0.15314224E-07 -0.15832370E-07 -0.16196103E-07
 -0.16403471E-07 -0.16454014E-07 -0.16348755E-07 -0.16090177E-07 -0.15682179E-07
 -0.15130034E-07 -0.14440317E-07 -0.13620840E-07 -0.12680557E-07 -0.11629478E-07
   19.8421228800787      T
 Non local Part
           0           2   1.03170241276447     
   8.48191517218165        11.7757836767903        11.7757836767903     
   16.3515625171536     
 Reciprocal Space Part
  0.59618802E+02  0.58728804E+02  0.56074024E+02  0.51699804E+02  0.45680746E+02
  0.38119274E+02  0.29143671E+02  0.18905623E+02  0.75773282E+01 -0.46517683E+01
 -0.17578547E+02 -0.30990019E+02 -0.44667277E+02 -0.58389527E+02 -0.71938095E+02
 -0.85100345E+02 -0.97673425E+02 -0.10946776E+03 -0.12031025E+03 -0.13004704E+03
 -0.13854596E+03 -0.14569837E+03 -0.15142064E+03 -0.15565502E+03 -0.15837002E+03
 -0.15956027E+03 -0.15924591E+03 -0.15747139E+03 -0.15430398E+03 -0.14983176E+03
 -0.14416132E+03 -0.13741514E+03 -0.12972880E+03 -0.12124795E+03 -0.11212524E+03
 -0.10251722E+03 -0.92581277E+02 -0.82472653E+02 -0.72341667E+02 -0.62331121E+02
 -0.52573985E+02 -0.43191382E+02 -0.34290898E+02 -0.25965259E+02 -0.18291368E+02
 -0.11329718E+02 -0.51241765E+01  0.29787571E+00  0.49250688E+01  0.87612564E+01
  0.11824451E+02  0.14145521E+02  0.15766686E+02  0.16739863E+02  0.17124899E+02
  0.16987748E+02  0.16398621E+02  0.15430172E+02  0.14155746E+02  0.12647730E+02
  0.10976046E+02  0.92067952E+01  0.74011008E+01  0.56141435E+01  0.38944113E+01
  0.22831646E+01  0.81411644E+00 -0.48667978E+00 -0.16007453E+01 -0.25169103E+01
 -0.32308862E+01 -0.37446987E+01 -0.40660062E+01 -0.42073286E+01 -0.41852143E+01
 -0.40193711E+01 -0.37317875E+01 -0.33458677E+01 -0.28856034E+01 -0.23748024E+01
 -0.18363896E+01 -0.12917960E+01 -0.76044515E+00 -0.25934295E+00  0.19722322E+00
  0.59787806E+00  0.93424642E+00  0.12009418E+01  0.13954638E+01  0.15180138E+01
  0.15712429E+01  0.15599426E+01  0.14906942E+01  0.13714899E+01  0.12113407E+01
  0.10198828E+01  0.80699697E+00  0.58245003E+00  0.35557023E+00  0.13496271E+00
 Real Space Part
 -0.87257185E+03 -0.87217325E+03 -0.87097758E+03 -0.86898535E+03 -0.86619740E+03
 -0.86261493E+03 -0.85823952E+03 -0.85307319E+03 -0.84711839E+03 -0.84037811E+03
 -0.83285587E+03 -0.82455582E+03 -0.81548281E+03 -0.80564241E+03 -0.79504105E+03
 -0.78368604E+03 -0.77158570E+03 -0.75874942E+03 -0.74518776E+03 -0.73091251E+03
 -0.71593685E+03 -0.70027535E+03 -0.68394415E+03 -0.66696100E+03 -0.64934533E+03
 -0.63111840E+03 -0.61230331E+03 -0.59292512E+03 -0.57301089E+03 -0.55258976E+03
 -0.53169298E+03 -0.51035396E+03 -0.48860832E+03 -0.46649386E+03 -0.44405060E+03
 -0.42132076E+03 -0.39834870E+03 -0.37518093E+03 -0.35186599E+03 -0.32845440E+03
 -0.30499855E+03 -0.28155254E+03 -0.25817210E+03 -0.23491433E+03 -0.21183758E+03
 -0.18900121E+03 -0.16646531E+03 -0.14429049E+03 -0.12253758E+03 -0.10126731E+03
 -0.80539962E+02 -0.60415079E+02 -0.40951054E+02 -0.22204768E+02 -0.42311995E+01
  0.12916980E+02  0.29189809E+02  0.44540445E+02  0.58925573E+02  0.72305804E+02
  0.84646067E+02  0.95915987E+02  0.10609024E+03  0.11514887E+03  0.12307763E+03
  0.12986821E+03  0.13551849E+03  0.14003271E+03  0.14342163E+03  0.14570263E+03
  0.14689971E+03  0.14704353E+03  0.14617130E+03  0.14432667E+03  0.14155957E+03
  0.13792593E+03  0.13348743E+03  0.12831116E+03  0.12246922E+03  0.11603831E+03
  0.10909924E+03  0.10173648E+03  0.94037578E+02  0.86092680E+02  0.77993902E+02
  0.69834817E+02  0.61709839E+02  0.53713688E+02  0.45940793E+02  0.38484762E+02
  0.31437841E+02  0.24890391E+02  0.18930406E+02  0.13643042E+02  0.91101706E+01
  0.54100403E+01  0.26168332E+01  0.79835325E+00  0.23427012E-01  0.00000000E+00
 Reciprocal Space Part
 -0.36489549E+02 -0.35864156E+02 -0.33998755E+02 -0.30925471E+02 -0.26697153E+02
 -0.21386360E+02 -0.15083959E+02 -0.78973858E+01  0.51413298E-01  0.86282977E+01
  0.17689472E+02  0.27084188E+02  0.36657552E+02  0.46253383E+02  0.55717063E+02
  0.64898313E+02  0.73653855E+02  0.81849887E+02  0.89364344E+02  0.96088881E+02
  0.10193057E+03  0.10681323E+03  0.11067846E+03  0.11348624E+03  0.11521523E+03
  0.11586261E+03  0.11544365E+03  0.11399089E+03  0.11155304E+03  0.10819353E+03
  0.10398888E+03  0.99026864E+02  0.93404459E+02  0.87225735E+02  0.80599650E+02
  0.73637846E+02  0.66452460E+02  0.59154022E+02  0.51849465E+02  0.44640290E+02
  0.37620922E+02  0.30877278E+02  0.24485577E+02  0.18511398E+02  0.13009009E+02
  0.80209530E+01  0.35779043E+01 -0.30122499E+00 -0.36089364E+01 -0.63485770E+01
 -0.85335736E+01 -0.10186497E+02 -0.11337984E+02 -0.12025554E+02 -0.12292345E+02
 -0.12185805E+02 -0.11756382E+02 -0.11056219E+02 -0.10137909E+02 -0.90533175E+01
 -0.78525080E+01 -0.65827802E+01 -0.52878430E+01 -0.40071309E+01 -0.27752721E+01
 -0.16217097E+01 -0.57047779E+00  0.35987548E+00  0.11562232E+01  0.18106666E+01
  0.23202264E+01  0.26864349E+01  0.29148468E+01  0.30144856E+01  0.29972475E+01
  0.28772789E+01  0.26703472E+01  0.23932227E+01  0.20630867E+01  0.16969795E+01
  0.13113025E+01  0.92138094E+00  0.54109837E+00  0.18260423E+00 -0.14390035E+00
 -0.43029978E+00 -0.67062595E+00 -0.86104898E+00 -0.99980292E+00 -0.10870535E+01
 -0.11247164E+01 -0.11162365E+01 -0.10663359E+01 -0.98074332E+00 -0.86591280E+00
 -0.72874294E+00 -0.57630417E+00 -0.41558297E+00 -0.25324963E+00 -0.95455204E-01
 Real Space Part
  0.63319797E+03  0.63291041E+03  0.63204781E+03  0.63061056E+03  0.62859924E+03
  0.62601473E+03  0.62285817E+03  0.61913101E+03  0.61483503E+03  0.60997237E+03
  0.60454559E+03  0.59855767E+03  0.59201211E+03  0.58491291E+03  0.57726472E+03
  0.56907280E+03  0.56034314E+03  0.55108251E+03  0.54129849E+03  0.53099960E+03
  0.52019530E+03  0.50889609E+03  0.49711358E+03  0.48486054E+03  0.47215095E+03
  0.45900011E+03  0.44542463E+03  0.43144254E+03  0.41707331E+03  0.40233788E+03
  0.38725874E+03  0.37185991E+03  0.35616701E+03  0.34020723E+03  0.32400934E+03
  0.30760369E+03  0.29102220E+03  0.27429832E+03  0.25746694E+03  0.24056440E+03
  0.22362837E+03  0.20669777E+03  0.18981266E+03  0.17301414E+03  0.15634416E+03
  0.13984541E+03  0.12356113E+03  0.10753493E+03  0.91810566E+02  0.76431735E+02
  0.61441833E+02  0.46883707E+02  0.32799393E+02  0.19229849E+02  0.62146659E+01
 -0.62082134E+01 -0.18002788E+02 -0.29135292E+02 -0.39574487E+02 -0.49291950E+02
 -0.58262356E+02 -0.66463744E+02 -0.73877778E+02 -0.80489982E+02 -0.86289957E+02
 -0.91271581E+02 -0.95433167E+02 -0.98777602E+02 -0.10131245E+03 -0.10305002E+03
 -0.10400739E+03 -0.10420642E+03 -0.10367366E+03 -0.10244030E+03 -0.10054203E+03
 -0.98018889E+02 -0.94915012E+02 -0.91278431E+02 -0.87160797E+02 -0.82617056E+02
 -0.77705128E+02 -0.72485556E+02 -0.67021113E+02 -0.61376433E+02 -0.55617588E+02
 -0.49811699E+02 -0.44026502E+02 -0.38329965E+02 -0.32789855E+02 -0.27473361E+02
 -0.22446704E+02 -0.17774762E+02 -0.13520724E+02 -0.97457493E+01 -0.65086493E+01
 -0.38656440E+01 -0.18700414E+01 -0.57059033E+00 -0.16714955E-01  0.00000000E+00
 Non local Part
           1           2   1.03170241276447     
   2.65859946877321        4.88238126795342        4.88238126795342     
   8.98435195357541     
 Reciprocal Space Part
  0.00000000E+00  0.38861820E+01  0.76566506E+01  0.11198191E+02  0.14402530E+02
  0.17168669E+02  0.19405054E+02  0.21031535E+02  0.21981079E+02  0.22201184E+02
  0.21654974E+02  0.20321960E+02  0.18198431E+02  0.15297488E+02  0.11648712E+02
  0.72974833E+01  0.23039596E+01 -0.32582469E+01 -0.93036735E+01 -0.15736848E+02
 -0.22454324E+02 -0.29346862E+02 -0.36301710E+02 -0.43204929E+02 -0.49943706E+02
 -0.56408622E+02 -0.62495800E+02 -0.68108907E+02 -0.73160964E+02 -0.77575922E+02
 -0.81289979E+02 -0.84252614E+02 -0.86427318E+02 -0.87792019E+02 -0.88339191E+02
 -0.88075654E+02 -0.87022084E+02 -0.85212244E+02 -0.82691957E+02 -0.79517866E+02
 -0.75756000E+02 -0.71480183E+02 -0.66770345E+02 -0.61710747E+02 -0.56388189E+02
 -0.50890222E+02 -0.45303418E+02 -0.39711722E+02 -0.34194931E+02 -0.28827322E+02
 -0.23676453E+02 -0.18802168E+02 -0.14255806E+02 -0.10079632E+02 -0.63064936E+01
 -0.29596904E+01 -0.53068427E-01  0.24086920E+01  0.44295991E+01  0.60217087E+01
  0.72043400E+01  0.80031754E+01  0.84492707E+01  0.85780039E+01  0.84279913E+01
  0.80399981E+01  0.74558696E+01  0.67175093E+01  0.58659233E+01  0.49403528E+01
  0.39775094E+01  0.30109262E+01  0.20704331E+01  0.11817624E+01  0.36628567E+00
 -0.35911990E+00 -0.98208097E+00 -0.14946211E+01 -0.18929483E+01 -0.21771504E+01
 -0.23508116E+01 -0.24205674E+01 -0.23956133E+01 -0.22871843E+01 -0.21080214E+01
 -0.18718417E+01 -0.15928247E+01 -0.12851305E+01 -0.96245910E+00 -0.63766179E+00
 -0.32241090E+00 -0.26933951E-01  0.24018535E+00  0.47213831E+00  0.66395584E+00
  0.81250966E+00  0.91645487E+00  0.97612004E+00  0.99335246E+00  0.97132649E+00
 Real Space Part
  0.00000000E+00 -0.22186814E+02 -0.44301839E+02 -0.66273522E+02 -0.88030777E+02
 -0.10950322E+03 -0.13062140E+03 -0.15131703E+03 -0.17152321E+03 -0.19117468E+03
 -0.21020799E+03 -0.22856176E+03 -0.24617690E+03 -0.26299679E+03 -0.27896751E+03
 -0.29403802E+03 -0.30816039E+03 -0.32128994E+03 -0.33338548E+03 -0.34440943E+03
 -0.35432799E+03 -0.36311136E+03 -0.37073379E+03 -0.37717380E+03 -0.38241426E+03
 -0.38644250E+03 -0.38925046E+03 -0.39083470E+03 -0.39119654E+03 -0.39034209E+03
 -0.38828229E+03 -0.38503293E+03 -0.38061467E+03 -0.37505301E+03 -0.36837826E+03
 -0.36062551E+03 -0.35183450E+03 -0.34204958E+03 -0.33131954E+03 -0.31969747E+03
 -0.30724063E+03 -0.29401017E+03 -0.28007097E+03 -0.26549136E+03 -0.25034283E+03
 -0.23469974E+03 -0.21863898E+03 -0.20223959E+03 -0.18558239E+03 -0.16874958E+03
 -0.15182426E+03 -0.13489000E+03 -0.11803038E+03 -0.10132845E+03 -0.84866250E+02
 -0.68724282E+02 -0.52980979E+02 -0.37712173E+02 -0.22990566E+02 -0.88851973E+01
  0.45390663E+01  0.17222034E+02  0.29108671E+02  0.40149550E+02  0.50301273E+02
  0.59526856E+02  0.67796071E+02  0.75085739E+02  0.81379975E+02  0.86670373E+02
  0.90956134E+02  0.94244139E+02  0.96548944E+02  0.97892719E+02  0.98305121E+02
  0.97823113E+02  0.96490698E+02  0.94358601E+02  0.91483927E+02  0.87929701E+02
  0.83764422E+02  0.79061549E+02  0.73898935E+02  0.68358280E+02  0.62524490E+02
  0.56485105E+02  0.50329625E+02  0.44148922E+02  0.38034576E+02  0.32078283E+02
  0.26371234E+02  0.21003526E+02  0.16063609E+02  0.11637728E+02  0.78094126E+01
  0.46590409E+01  0.22633368E+01  0.69369210E+00  0.17747648E-01  0.00000000E+00
 Reciprocal Space Part
  0.00000000E+00 -0.17868362E+01 -0.35144269E+01 -0.51248277E+01 -0.65626676E+01
 -0.77763629E+01 -0.87192468E+01 -0.93505888E+01 -0.96364809E+01 -0.95505728E+01
 -0.90746384E+01 -0.81989629E+01 -0.69225426E+01 -0.52530936E+01 -0.32068705E+01
 -0.80830207E+00  0.19105496E+01  0.49106895E+01  0.81470351E+01  0.11569385E+02
  0.15123488E+02  0.18752190E+02  0.22396628E+02  0.25997448E+02  0.29496018E+02
  0.32835608E+02  0.35962514E+02  0.38827099E+02  0.41384736E+02  0.43596618E+02
  0.45430445E+02  0.46860950E+02  0.47870266E+02  0.48448142E+02  0.48591976E+02
  0.48306705E+02  0.47604523E+02  0.46504469E+02  0.45031872E+02  0.43217686E+02
  0.41097721E+02  0.38711805E+02  0.36102874E+02  0.33316045E+02  0.30397658E+02
  0.27394336E+02  0.24352070E+02  0.21315355E+02  0.18326389E+02  0.15424354E+02
  0.12644790E+02  0.10019079E+02  0.75740326E+01  0.53316035E+01  0.33087123E+01
  0.15171909E+01 -0.36159418E-01 -0.13494048E+01 -0.24252171E+01 -0.32705252E+01
 -0.38960921E+01 -0.43160309E+01 -0.45472742E+01 -0.46090120E+01 -0.45221135E+01
 -0.43085463E+01 -0.39908088E+01 -0.35913863E+01 -0.31322454E+01 -0.26343746E+01
 -0.21173800E+01 -0.15991441E+01 -0.10955499E+01 -0.62027500E+00 -0.18465580E+00
  0.20237976E+00  0.53431322E+00  0.80697500E+00  0.10184279E+01  0.11688016E+01
  0.12600861E+01  0.12958921E+01  0.12811875E+01  0.12220191E+01  0.11252269E+01
  0.99816176E+00  0.84841124E+00  0.68354309E+00  0.51087098E+00  0.33724795E+00
  0.16889148E+00  0.11242749E-01 -0.13113830E+00 -0.25464171E+00 -0.35664077E+00
 -0.43549155E+00 -0.49050126E+00 -0.52186870E+00 -0.53060095E+00 -0.51841055E+00
 Real Space Part
  0.00000000E+00  0.12161252E+02  0.24283469E+02  0.36327742E+02  0.48255417E+02
  0.60028220E+02  0.71608383E+02  0.82958767E+02  0.94042991E+02  0.10482555E+03
  0.11527193E+03  0.12534873E+03  0.13502381E+03  0.14426635E+03  0.15304699E+03
  0.16133795E+03  0.16911311E+03  0.17634814E+03  0.18302057E+03  0.18910990E+03
  0.19459770E+03  0.19946767E+03  0.20370573E+03  0.20730009E+03  0.21024135E+03
  0.21252251E+03  0.21413905E+03  0.21508898E+03  0.21537287E+03  0.21499392E+03
  0.21395789E+03  0.21227322E+03  0.20995096E+03  0.20700481E+03  0.20345105E+03
  0.19930856E+03  0.19459875E+03  0.18934552E+03  0.18357519E+03  0.17731641E+03
  0.17060007E+03  0.16345921E+03  0.15592887E+03  0.14804598E+03  0.13984918E+03
  0.13137868E+03  0.12267606E+03  0.11378408E+03  0.10474648E+03  0.95607747E+02
  0.86412883E+02  0.77207157E+02  0.68035844E+02  0.58943963E+02  0.49976000E+02
  0.41175622E+02  0.32585400E+02  0.24246514E+02  0.16198468E+02  0.84788075E+01
  0.11228377E+01 -0.58366451E+01 -0.12369614E+02 -0.18449055E+02 -0.24051197E+02
 -0.29155721E+02 -0.33745943E+02 -0.37808973E+02 -0.41335852E+02 -0.44321651E+02
 -0.46765541E+02 -0.48670833E+02 -0.50044982E+02 -0.50899549E+02 -0.51250136E+02
 -0.51116295E+02 -0.50521380E+02 -0.49492378E+02 -0.48059729E+02 -0.46257077E+02
 -0.44121031E+02 -0.41690892E+02 -0.39008342E+02 -0.36117160E+02 -0.33062867E+02
 -0.29892426E+02 -0.26653874E+02 -0.23396010E+02 -0.20168034E+02 -0.17019231E+02
 -0.13998631E+02 -0.11154698E+02 -0.85350264E+01 -0.61860453E+01 -0.41527388E+01
 -0.24784108E+01 -0.12044157E+01 -0.36926989E+00 -0.93979993E-02  0.00000000E+00
 PAW radial sets
         351  0.989218471734280     
(5E20.12)                                
 augmentation charges (non sperical)
 -0.118612820244E+00 -0.166184190184E+00 -0.532145144881E-01 -0.101222164724E+00 -0.166184190184E+00
 -0.232848406670E+00 -0.743582353105E-01 -0.141431561143E+00 -0.532145144881E-01 -0.743582353105E-01
 -0.179689550405E-01 -0.343505440708E-01 -0.101222164724E+00 -0.141431561143E+00 -0.343505440708E-01
 -0.655142723317E-01
 uccopancies in atom
  0.200000000235E+01  0.000000000000E+00  0.000000000000E+00  0.000000000000E+00  0.000000000000E+00
  0.000000000000E+00  0.000000000000E+00  0.000000000000E+00  0.000000000000E+00  0.000000000000E+00
  0.666666668254E+00  0.000000000000E+00  0.000000000000E+00  0.000000000000E+00  0.000000000000E+00
  0.000000000000E+00
 grid
  0.353278105438E-04  0.364765828105E-04  0.376627102856E-04  0.388874076671E-04  0.401519291522E-04
  0.414575697215E-04  0.428056664648E-04  0.441975999512E-04  0.456347956421E-04  0.471187253514E-04
  0.486509087530E-04  0.502329149365E-04  0.518663640144E-04  0.535529287814E-04  0.552943364272E-04
  0.570923703053E-04  0.589488717596E-04  0.608657420098E-04  0.628449440985E-04  0.648885049016E-04
  0.669985172040E-04  0.691771418426E-04  0.714266099194E-04  0.737492250864E-04  0.761473659044E-04
  0.786234882792E-04  0.811801279764E-04  0.838199032186E-04  0.865455173661E-04  0.893597616862E-04
  0.922655182109E-04  0.952657626888E-04  0.983635676325E-04  0.101562105465E-03  0.104864651768E-03
  0.108274588638E-03  0.111795408149E-03  0.115430715926E-03  0.119184234844E-03  0.123059808833E-03
  0.127061406819E-03  0.131193126789E-03  0.135459199986E-03  0.139863995240E-03  0.144412023447E-03
  0.149107942186E-03  0.153956560487E-03  0.158962843759E-03  0.164131918874E-03  0.169469079417E-03
  0.174979791106E-03  0.180669697392E-03  0.186544625235E-03  0.192610591076E-03  0.198873806993E-03
  0.205340687067E-03  0.212017853948E-03  0.218912145639E-03  0.226030622496E-03  0.233380574462E-03
  0.240969528530E-03  0.248805256452E-03  0.256895782699E-03  0.265249392676E-03  0.273874641209E-03
  0.282780361308E-03  0.291975673207E-03  0.301469993709E-03  0.311273045829E-03  0.321394868748E-03
  0.331845828098E-03  0.342636626573E-03  0.353778314896E-03  0.365282303127E-03  0.377160372357E-03
  0.389424686766E-03  0.402087806084E-03  0.415162698451E-03  0.428662753701E-03  0.442601797068E-03
  0.456994103352E-03  0.471854411533E-03  0.487197939863E-03  0.503040401457E-03  0.519398020380E-03
  0.536287548263E-03  0.553726281459E-03  0.571732078754E-03  0.590323379658E-03  0.609519223288E-03
  0.629339267864E-03  0.649803810846E-03  0.670933809712E-03  0.692750903429E-03  0.715277434606E-03
  0.738536472381E-03  0.762551836040E-03  0.787348119413E-03  0.812950716063E-03  0.839385845286E-03
  0.866680578963E-03  0.894862869287E-03  0.923961577387E-03  0.954006502881E-03  0.985028414399E-03
  0.101705908109E-02  0.105013130516E-02  0.108427895544E-02  0.111953700213E-02  0.115594155253E-02
  0.119352988810E-02  0.123234050257E-02  0.127241314140E-02  0.131378884247E-02  0.135650997813E-02
  0.140062029854E-02  0.144616497653E-02  0.149319065382E-02  0.154174548883E-02  0.159187920594E-02
  0.164364314647E-02  0.169709032120E-02  0.175227546473E-02  0.180925509145E-02  0.186808755348E-02
  0.192883310041E-02  0.199155394099E-02  0.205631430683E-02  0.212318051821E-02  0.219222105197E-02
  0.226350661166E-02  0.233711019991E-02  0.241310719324E-02  0.249157541920E-02  0.257259523611E-02
  0.265624961535E-02  0.274262422631E-02  0.283180752413E-02  0.292389084032E-02  0.301896847624E-02
  0.311713779968E-02  0.321849934462E-02  0.332315691413E-02  0.343121768671E-02  0.354279232604E-02
  0.365799509430E-02  0.377694396919E-02  0.389976076474E-02  0.402657125610E-02  0.415750530828E-02
  0.429269700920E-02  0.443228480697E-02  0.457641165169E-02  0.472522514185E-02  0.487887767547E-02
  0.503752660617E-02  0.520133440431E-02  0.537046882339E-02  0.554510307185E-02  0.572541599040E-02
  0.591159223525E-02  0.610382246712E-02  0.630230354657E-02  0.650723873558E-02  0.671883790569E-02
  0.693731775293E-02  0.716290201977E-02  0.739582172419E-02  0.763631539635E-02  0.788462932276E-02
  0.814101779859E-02  0.840574338805E-02  0.867907719326E-02  0.896129913194E-02  0.925269822400E-02
  0.955357288758E-02  0.986423124464E-02  0.101849914365E-01  0.105161819495E-01  0.108581419519E-01
  0.112112216404E-01  0.115757825996E-01  0.119521981717E-01  0.123408538391E-01  0.127421476193E-01
  0.131564904721E-01  0.135843067208E-01  0.140260344867E-01  0.144821261375E-01  0.149530487510E-01
  0.154392845931E-01  0.159413316118E-01  0.164597039470E-01  0.169949324574E-01  0.175475652638E-01
  0.181181683104E-01  0.187073259445E-01  0.193156415151E-01  0.199437379906E-01  0.205922585965E-01
  0.212618674747E-01  0.219532503631E-01  0.226671152982E-01  0.234041933402E-01  0.241652393213E-01
  0.249510326191E-01  0.257623779547E-01  0.266001062165E-01  0.274650753115E-01  0.283581710436E-01
  0.292803080210E-01  0.302324305924E-01  0.312155138146E-01  0.322305644506E-01  0.332786220011E-01
  0.343607597686E-01  0.354780859567E-01  0.366317448050E-01  0.378229177610E-01  0.390528246900E-01
  0.403227251240E-01  0.416339195521E-01  0.429877507520E-01  0.443856051652E-01  0.458289143166E-01
  0.473191562810E-01  0.488578571964E-01  0.504465928270E-01  0.520869901769E-01  0.537807291563E-01
  0.555295443019E-01  0.573352265534E-01  0.591996250870E-01  0.611246492098E-01  0.631122703148E-01
  0.651645238996E-01  0.672835116512E-01  0.694714035982E-01  0.717304403333E-01  0.740629353074E-01
  0.764712771991E-01  0.789579323611E-01  0.815254473456E-01  0.841764515121E-01  0.869136597208E-01
  0.897398751118E-01  0.926579919768E-01  0.956709987225E-01  0.987819809310E-01  0.101994124520E+00
  0.105310719005E+00  0.108735160869E+00  0.112270957040E+00  0.115921728481E+00  0.119691213902E+00
  0.123583273585E+00  0.127601893339E+00  0.131751188583E+00  0.136035408556E+00  0.140458940676E+00
  0.145026315024E+00  0.149742208992E+00  0.154611452068E+00  0.159639030781E+00  0.164830093811E+00
  0.170189957261E+00  0.175724110099E+00  0.181438219781E+00  0.187338138056E+00  0.193429906954E+00
  0.199719764979E+00  0.206214153496E+00  0.212919723327E+00  0.219843341560E+00  0.226992098585E+00
  0.234373315355E+00  0.241994550880E+00  0.249863609972E+00  0.257988551235E+00  0.266377695319E+00
  0.275039633439E+00  0.283983236179E+00  0.293217662568E+00  0.302752369466E+00  0.312597121246E+00
  0.322761999795E+00  0.333257414835E+00  0.344094114590E+00  0.355283196787E+00  0.366836120023E+00
  0.378764715502E+00  0.391081199148E+00  0.403798184116E+00  0.416928693710E+00  0.430486174720E+00
  0.444484511190E+00  0.458938038641E+00  0.473861558747E+00  0.489270354497E+00  0.505180205845E+00
  0.521607405869E+00  0.538568777456E+00  0.556081690535E+00  0.574164079857E+00  0.592834463369E+00
  0.612111961177E+00  0.632016315122E+00  0.652567909002E+00  0.673787789445E+00  0.695697687463E+00
  0.718320040705E+00  0.741678016440E+00  0.765795535274E+00  0.790697295655E+00  0.816408799161E+00
  0.842956376619E+00  0.870367215068E+00  0.898669385601E+00  0.927891872115E+00  0.958064600989E+00
  0.989218471734E+00  0.102138538864E+01  0.105459829343E+01  0.108889119903E+01  0.112429922437E+01
  0.116085863037E+01  0.119860685704E+01  0.123758256187E+01  0.127782565939E+01  0.131937736205E+01
  0.136228022242E+01  0.140657817678E+01  0.145231659010E+01  0.149954230253E+01  0.154830367731E+01
  0.159865065035E+01  0.165063478135E+01  0.170430930661E+01  0.175972919353E+01  0.181695119691E+01
  0.187603391710E+01  0.193703785995E+01  0.200002549884E+01  0.206506133861E+01  0.213221198164E+01
  0.220154619607E+01  0.227313498618E+01  0.234705166515E+01  0.242337193012E+01  0.250217393971E+01
  0.258353839407E+01
 aepotential
  0.249296947974E+05  0.247076561026E+05  0.244443313547E+05  0.241414253640E+05  0.238012309740E+05
  0.234259813678E+05  0.230181043480E+05  0.225809961616E+05  0.221166800594E+05  0.216286109490E+05
  0.211196171324E+05  0.205927134571E+05  0.200508445329E+05  0.194969963033E+05  0.189339771311E+05
  0.183645026186E+05  0.177912890443E+05  0.172167064663E+05  0.166431270260E+05  0.160726862779E+05
  0.155073402250E+05  0.149488848247E+05  0.143989117768E+05  0.138588393857E+05  0.133298963598E+05
  0.128131392341E+05  0.123094542557E+05  0.118195679465E+05  0.113440551010E+05  0.108833506728E+05
  0.104377601662E+05  0.100074714858E+05  0.959256622382E+04  0.919303113611E+04  0.880876923400E+04
  0.843961046952E+04  0.808532192877E+04  0.774561726178E+04  0.742016531312E+04  0.710859980992E+04
  0.681052312014E+04  0.652551855157E+04  0.625315022209E+04  0.599297269034E+04  0.574453507071E+04
  0.550738155297E+04  0.528105943435E+04  0.506512283908E+04  0.485912669119E+04  0.466263692016E+04
  0.447523241993E+04  0.429649920031E+04  0.412604217009E+04  0.396347085357E+04  0.380841736718E+04
  0.366052059215E+04  0.351943998366E+04  0.338484550824E+04  0.325642075114E+04  0.313386784458E+04
  0.301689601724E+04  0.290523717951E+04  0.279862371984E+04  0.269681383135E+04  0.259956791482E+04
  0.250666289932E+04  0.241788601403E+04  0.233303530109E+04  0.225191811134E+04  0.217435346238E+04
  0.210016749107E+04  0.202919681943E+04  0.196128648905E+04  0.189628781912E+04  0.183406428064E+04
  0.177447815378E+04  0.171741030060E+04  0.166273352875E+04  0.161034457319E+04  0.156012716492E+04
  0.151198483922E+04  0.146582052759E+04  0.142154086395E+04  0.137906097148E+04  0.133829797002E+04
  0.129917207490E+04  0.126161128619E+04  0.122554324807E+04  0.119090137554E+04  0.115762273768E+04
  0.112564519634E+04  0.109491260230E+04  0.106536958529E+04  0.103696376209E+04  0.100964626874E+04
  0.983369386517E+03  0.958088259270E+03  0.933760491469E+03  0.910344918809E+03  0.887802999165E+03
  0.866097688492E+03  0.845193722659E+03  0.825057486722E+03  0.805656949235E+03  0.786961460988E+03
  0.768941860254E+03  0.751570280175E+03  0.734820058649E+03  0.718665839953E+03  0.703083242035E+03
  0.688049142095E+03  0.673541285748E+03  0.659538404365E+03  0.646020181485E+03  0.632967306499E+03
  0.620361030724E+03  0.608183507242E+03  0.596417880177E+03  0.585047538181E+03  0.574057005309E+03
  0.563431167138E+03  0.553155596176E+03  0.543216472219E+03  0.533600577089E+03  0.524295096628E+03
  0.515287864004E+03  0.506567108698E+03  0.498121462758E+03  0.489940202519E+03  0.482012792804E+03
  0.474329218497E+03  0.466879807157E+03  0.459655277491E+03  0.452646665244E+03  0.445845326919E+03
  0.439242971301E+03  0.432831556708E+03  0.426603373307E+03  0.420550954576E+03  0.414667100840E+03
  0.408944864593E+03  0.403377536754E+03  0.397958629585E+03  0.392681872509E+03  0.387541205851E+03
  0.382530758167E+03  0.377644862756E+03  0.372878015893E+03  0.368224898594E+03  0.363680350460E+03
  0.359239371823E+03  0.354897097109E+03  0.350648847402E+03  0.346490028292E+03  0.342416224923E+03
  0.338423107351E+03  0.334506504401E+03  0.330662319969E+03  0.326886614027E+03  0.323175521883E+03
  0.319525291137E+03  0.315932256738E+03  0.312392876939E+03  0.308903660561E+03  0.305461237806E+03
  0.302062300261E+03  0.298703633981E+03  0.295382095296E+03  0.292094620152E+03  0.288838215885E+03
  0.285609957558E+03  0.282406996490E+03  0.279226542503E+03  0.276065876855E+03  0.272922339966E+03
  0.269793336953E+03  0.266676334707E+03  0.263568857552E+03  0.260468492389E+03  0.257372882929E+03
  0.254279731763E+03  0.251186799954E+03  0.248091907223E+03  0.244992930370E+03  0.241887805727E+03
  0.238774528474E+03  0.235651153907E+03  0.232515797559E+03  0.229366637373E+03  0.226201914200E+03
  0.223019933142E+03  0.219819066345E+03  0.216597753942E+03  0.213354506528E+03  0.210087907601E+03
  0.206796615859E+03  0.203479368741E+03  0.200134985511E+03  0.196762369494E+03  0.193360514156E+03
  0.189928504953E+03  0.186465523853E+03  0.182970859195E+03  0.179443901362E+03  0.175884158862E+03
  0.172291258360E+03  0.168664954571E+03  0.165005135639E+03  0.161311835637E+03  0.157585240450E+03
  0.153825700617E+03  0.150033742009E+03  0.146210080614E+03  0.142355636015E+03  0.138471547517E+03
  0.134559194204E+03  0.130620213523E+03  0.126656524279E+03  0.122670351092E+03  0.118664249894E+03
  0.114641136764E+03  0.110604316344E+03  0.106557510777E+03  0.102504888129E+03  0.984510866673E+02
  0.944012339330E+02  0.903609560496E+02  0.863363727654E+02  0.823340720461E+02  0.783610582152E+02
  0.744246635302E+02  0.705324163825E+02  0.666918556889E+02  0.629102857223E+02  0.591944670209E+02
  0.555502478406E+02  0.519821533052E+02  0.484929672889E+02  0.450833747727E+02  0.417517679667E+02
  0.384943736779E+02  0.353058990617E+02  0.321809409707E+02  0.291163273793E+02  0.261144332192E+02
  0.231871490568E+02  0.203596536608E+02  0.176726023843E+02  0.151810750610E+02  0.129490421852E+02
  0.110393419844E+02  0.950085960920E+01  0.835601618665E+01  0.759220066468E+01  0.716026999428E+01
  0.698171626746E+01  0.696337605625E+01  0.701521103097E+01  0.706481640894E+01  0.706399982574E+01
  0.698712687429E+01  0.682461396109E+01  0.657568919727E+01  0.624298320013E+01  0.582958771078E+01
  0.533805431630E+01  0.477041539462E+01  0.412860168459E+01  0.341481102932E+01  0.263171179070E+01
  0.178246356837E+01  0.870634857094E+00 -0.999435655628E-01 -0.112531912148E+01 -0.220152950825E+01
 -0.332469240511E+01 -0.449104627091E+01 -0.569696900609E+01 -0.693897492393E+01 -0.821369212013E+01
 -0.951782569431E+01 -0.108481106853E+02 -0.122012544483E+02 -0.135738672328E+02 -0.149623731041E+02
 -0.163629117637E+02 -0.177712183098E+02 -0.191824857852E+02 -0.205912204531E+02 -0.219910948777E+02
 -0.233748286767E+02 -0.247341319073E+02 -0.260597523206E+02 -0.273417023275E+02 -0.285696934068E+02
 -0.297338412853E+02 -0.308256304858E+02 -0.318391158428E+02 -0.327722938273E+02 -0.336286100568E+02
 -0.344184456425E+02 -0.351602597585E+02 -0.358801414497E+02 -0.366068311139E+02 -0.373574865876E+02
 -0.381118852062E+02 -0.387867275622E+02 -0.392441858557E+02 -0.393634905455E+02 -0.391349287148E+02
 -0.386756213346E+02 -0.381417405135E+02 -0.376357899161E+02 -0.371876084550E+02 -0.367857306580E+02
 -0.364089018964E+02 -0.360404071207E+02 -0.356705439437E+02 -0.352947736228E+02 -0.349113814513E+02
 -0.345198082255E+02 -0.341197553652E+02 -0.337108267652E+02 -0.332925072698E+02 -0.328642387355E+02
 -0.324255741088E+02 -0.319762374262E+02 -0.315162189773E+02 -0.310457677673E+02 -0.305653859428E+02
 -0.300757994671E+02 -0.295778859655E+02 -0.290726427811E+02 -0.285611001088E+02 -0.280442533230E+02
 -0.275230192225E+02 -0.269981679715E+02 -0.264702980396E+02 -0.259398216884E+02 -0.254069826533E+02
 -0.248718994035E+02 -0.243346314120E+02 -0.237952586509E+02 -0.232539624826E+02 -0.227110955590E+02
 -0.221672327097E+02 -0.216231877485E+02 -0.210800244667E+02 -0.205390174919E+02 -0.200016158604E+02
 -0.194693867508E+02
 core charge-density
  0.566100408154E-04  0.603274793074E-04  0.642889044283E-04  0.685103166568E-04  0.730087644875E-04
  0.778024129493E-04  0.829106165872E-04  0.883539971990E-04  0.941545266560E-04  0.100335615085E-03
  0.106922204822E-03  0.113940870473E-03  0.121419925474E-03  0.129389535603E-03  0.137881839861E-03
  0.146931079213E-03  0.156573733698E-03  0.166848668447E-03  0.177797289174E-03  0.189463707768E-03
  0.201894918628E-03  0.215140986428E-03  0.229255246056E-03  0.244294515512E-03  0.260319322588E-03
  0.277394146221E-03  0.295587673465E-03  0.314973073077E-03  0.335628286780E-03  0.357636339348E-03
  0.381085668699E-03  0.406070477287E-03  0.432691106152E-03  0.461054433064E-03  0.491274296314E-03
  0.523471945761E-03  0.557776522887E-03  0.594325571702E-03  0.633265582435E-03  0.674752570119E-03
  0.718952690251E-03  0.766042893893E-03  0.816211624674E-03  0.869659560374E-03  0.926600401855E-03
  0.987261712339E-03  0.105188581019E-02  0.112073071853E-02  0.119407117529E-02  0.127219970739E-02
  0.135542777315E-02  0.144408697705E-02  0.153853036146E-02  0.163913378001E-02  0.174629735768E-02
  0.186044704296E-02  0.198203625776E-02  0.211154765105E-02  0.224949496259E-02  0.239642500343E-02
  0.255291976042E-02  0.271959863213E-02  0.289712080418E-02  0.308618777247E-02  0.328754602307E-02
  0.350198987838E-02  0.373036451926E-02  0.397356919385E-02  0.423256062398E-02  0.450835662100E-02
  0.480203992329E-02  0.511476226845E-02  0.544774871395E-02  0.580230222061E-02  0.617980851421E-02
  0.658174124108E-02  0.700966743491E-02  0.746525331166E-02  0.795027041269E-02  0.846660211345E-02
  0.901625052094E-02  0.960134377894E-02  0.102241438053E-01  0.108870544842E-01  0.115926303386E-01
  0.123435857075E-01  0.131428044576E-01  0.139933502544E-01  0.148984774251E-01  0.158616424421E-01
  0.168865160593E-01  0.179769961364E-01  0.191372211820E-01  0.203715846550E-01  0.216847500588E-01
  0.230816668678E-01  0.245675873256E-01  0.261480841549E-01  0.278290692218E-01  0.296168131969E-01
  0.315179662576E-01  0.335395798759E-01  0.356891297379E-01  0.379745398409E-01  0.404042078155E-01
  0.429870315194E-01  0.457324369501E-01  0.486504075246E-01  0.517515147717E-01  0.550469504838E-01
  0.585485603728E-01  0.622688792735E-01  0.662211679360E-01  0.704194514465E-01  0.748785593126E-01
  0.796141672432E-01  0.846428406544E-01  0.899820799218E-01  0.956503673943E-01  0.101667216183E+00
  0.108053220723E+00  0.114830109098E+00  0.122020797119E+00  0.129649444112E+00  0.137741510382E+00
  0.146323816290E+00  0.155424602864E+00  0.165073593849E+00  0.175302059090E+00  0.186142879083E+00
  0.197630610560E+00  0.209801552888E+00  0.222693815062E+00  0.236347383047E+00  0.250804187144E+00
  0.266108169064E+00  0.282305348315E+00  0.299443887476E+00  0.317574155859E+00  0.336748791043E+00
  0.357022757646E+00  0.378453402702E+00  0.401100506871E+00  0.425026330694E+00  0.450295654993E+00
  0.476975814429E+00  0.505136723178E+00  0.534850891530E+00  0.566193432183E+00  0.599242054859E+00
  0.634077047765E+00  0.670781244335E+00  0.709439973560E+00  0.750140992075E+00  0.792974396116E+00
  0.838032511244E+00  0.885409757763E+00  0.935202489441E+00  0.987508803254E+00  0.104242831757E+01
  0.110006191624E+01  0.116051145584E+01  0.122387943346E+01  0.129026861193E+01  0.135978160000E+01
  0.143252038425E+01  0.150858581009E+01  0.158807700896E+01  0.167109076893E+01  0.175772084621E+01
  0.184805721494E+01  0.194218525332E+01  0.204018486382E+01  0.214212952620E+01  0.224808528199E+01
  0.235810964998E+01  0.247225047259E+01  0.259054469391E+01  0.271301707089E+01  0.283967882006E+01
  0.297052620347E+01  0.310553905827E+01  0.324467927606E+01  0.338788923929E+01  0.353509022378E+01
  0.368618077801E+01  0.384103509149E+01  0.399950136699E+01  0.416140021288E+01  0.432652307442E+01
  0.449463072490E+01  0.466545184006E+01  0.483868168119E+01  0.501398091525E+01  0.519097460207E+01
  0.536925138135E+01  0.554836289419E+01  0.572782347558E+01  0.590711015619E+01  0.608566301289E+01
  0.626288590845E+01  0.643814766086E+01  0.661078368325E+01  0.678009813289E+01  0.694536660815E+01
  0.710583942709E+01  0.726074551989E+01  0.740929696058E+01  0.755069415923E+01  0.768413172658E+01
  0.780880501609E+01  0.792391733716E+01  0.802868782233E+01  0.812235991814E+01  0.820421045514E+01
  0.827355923749E+01  0.832977907498E+01  0.837230616406E+01  0.840065070529E+01  0.841440762640E+01
  0.841326726196E+01  0.839702582182E+01  0.836559546387E+01  0.831901377096E+01  0.825745241774E+01
  0.818122480318E+01  0.809079241634E+01  0.798676970036E+01  0.786992718088E+01  0.774119263277E+01
  0.760165007160E+01  0.745253637713E+01  0.729523538244E+01  0.713126929714E+01  0.696228737445E+01
  0.679005178084E+01  0.661642068236E+01  0.644332862226E+01  0.627276433103E+01  0.610674617685E+01
  0.594729553438E+01  0.579640841756E+01  0.565602577058E+01  0.552800288253E+01  0.541407841905E+01
  0.531584356652E+01  0.523471181475E+01  0.517188988547E+01  0.512835031200E+01  0.510480618875E+01
  0.510168864942E+01  0.511912769994E+01  0.515693711116E+01  0.521460413879E+01  0.529128484590E+01
  0.538580571386E+01  0.549667199677E+01  0.562208291152E+01  0.575995334559E+01  0.590794145701E+01
  0.606348143532E+01  0.622382075557E+01  0.638606135679E+01  0.654720421042E+01  0.670419668250E+01
  0.685398197262E+01  0.699354974359E+01  0.711998698134E+01  0.723052801287E+01  0.732260261476E+01
  0.739388115435E+01  0.744231577198E+01  0.746617668668E+01  0.746408283670E+01  0.743502617611E+01
  0.737838909120E+01  0.729395456103E+01  0.718190882688E+01  0.704283651135E+01  0.687770827554E+01
  0.668786127413E+01  0.647497281612E+01  0.624102777379E+01  0.598828043165E+01  0.571921157955E+01
  0.543648173800E+01  0.514288151879E+01  0.484128016393E+01  0.453457335746E+01  0.422563144517E+01
  0.391724918675E+01  0.361209817668E+01  0.331268302840E+01  0.302130238260E+01  0.274001574527E+01
  0.247061699977E+01  0.221461533156E+01  0.197322403846E+01  0.174735751206E+01  0.153763599448E+01
  0.134439801278E+01  0.116771925944E+01  0.100743683521E+01  0.863177139249E+00  0.734385165797E+00
  0.620352459116E+00  0.520241286779E+00  0.433104991178E+00  0.357908936157E+00  0.293558957004E+00
  0.238939321053E+00  0.192952592630E+00  0.154550553295E+00  0.122752018839E+00  0.966509407173E-01
  0.754197350591E-01  0.583105682925E-01  0.446553131657E-01  0.338641471811E-01  0.254227490621E-01
  0.188882113068E-01  0.138839137385E-01  0.100936590292E-01  0.725537509450E-02  0.515466309716E-02
  0.361842930266E-02  0.250879268147E-02  0.171741309607E-02  0.116033964584E-02  0.773437417305E-03
  0.508414784907E-03  0.329443540380E-03  0.210340978410E-03  0.132266603092E-03  0.818759218551E-04
  0.498690344207E-04  0.298714443437E-04  0.175875916060E-04  0.101729842592E-04  0.577752330293E-05
  0.321986957660E-05  0.175987680434E-05  0.942778890139E-06  0.494707936977E-06  0.254108048780E-06
  0.127681574306E-06  0.627159654587E-07  0.300924318689E-07  0.140943050873E-07  0.643877401768E-08
  0.286674509825E-08
 kinetic energy-density
  0.667225310700E+01  0.673712425060E+01  0.680446712075E+01  0.687435266836E+01  0.694687887984E+01
  0.702214082218E+01  0.710025487509E+01  0.718131997169E+01  0.726545491156E+01  0.735279351610E+01
  0.744345621126E+01  0.753759398662E+01  0.763534237524E+01  0.773686628737E+01  0.784232168333E+01
  0.795188785384E+01  0.806574492238E+01  0.818408265740E+01  0.830710733444E+01  0.843502925423E+01
  0.856807463323E+01  0.870648022710E+01  0.885049499152E+01  0.900038141274E+01  0.915641556867E+01
  0.931888763846E+01  0.948810409274E+01  0.966438660997E+01  0.984807420966E+01  0.100395236808E+02
  0.102391106259E+02  0.104472306217E+02  0.106643002129E+02  0.108907581658E+02  0.111270667128E+02
  0.113737129173E+02  0.116312100590E+02  0.119000995563E+02  0.121809512045E+02  0.124743676751E+02
  0.127809824020E+02  0.131014661587E+02  0.134365246352E+02  0.137869037259E+02  0.141533910827E+02
  0.145368181700E+02  0.149380606607E+02  0.153580481103E+02  0.157977592006E+02  0.162582301660E+02
  0.167405536651E+02  0.172458849260E+02  0.177754489910E+02  0.183305360512E+02  0.189125147524E+02
  0.195228293783E+02  0.201630086713E+02  0.208346731063E+02  0.215395302738E+02  0.222793960940E+02
  0.230561817871E+02  0.238719218157E+02  0.247287599035E+02  0.256289715181E+02  0.265749638623E+02
  0.275692850611E+02  0.286146340209E+02  0.297138695051E+02  0.308700182642E+02  0.320862867047E+02
  0.333660717388E+02  0.347129698754E+02  0.361307926843E+02  0.376235764044E+02  0.391956004794E+02
  0.408513960801E+02  0.425957666062E+02  0.444337942387E+02  0.463708781148E+02  0.484127240612E+02
  0.505653883328E+02  0.528352819288E+02  0.552292043731E+02  0.577543512402E+02  0.604183612533E+02
  0.632293138540E+02  0.661957773286E+02  0.693268340532E+02  0.726320939962E+02  0.761217542966E+02
  0.798066090433E+02  0.836980910427E+02  0.878083249418E+02  0.921501355979E+02  0.967371238079E+02
  0.101583684198E+03  0.106705064907E+03  0.112117414382E+03  0.117837828166E+03  0.123884409252E+03
  0.130276320038E+03  0.137033846315E+03  0.144178456681E+03  0.151732871301E+03  0.159721130996E+03
  0.168168668145E+03  0.177102387622E+03  0.186550741797E+03  0.196543819667E+03  0.207113432275E+03
  0.218293201433E+03  0.230118672341E+03  0.242627385569E+03  0.255859010707E+03  0.269855440106E+03
  0.284660908978E+03  0.300322108546E+03  0.316888318424E+03  0.334411529406E+03  0.352946573140E+03
  0.372551274533E+03  0.393286576958E+03  0.415216695313E+03  0.438409280187E+03  0.462935557123E+03
  0.488870494758E+03  0.516292978425E+03  0.545285959475E+03  0.575936645981E+03  0.608336673183E+03
  0.642582272764E+03  0.678774465893E+03  0.717019234895E+03  0.757427713585E+03  0.800116365041E+03
  0.845207163513E+03  0.892827774214E+03  0.943111730250E+03  0.996198604607E+03  0.105223417127E+04
  0.111137056935E+04  0.117376644321E+04  0.123958708989E+04  0.130900456745E+04  0.138219781473E+04
  0.145935272609E+04  0.154066222765E+04  0.162632630841E+04  0.171655203448E+04  0.181155353272E+04
  0.191155192916E+04  0.201677522893E+04  0.212745822677E+04  0.224384225326E+04  0.236617496487E+04
  0.249470999554E+04  0.262970664059E+04  0.277142932316E+04  0.292014710882E+04  0.307613311454E+04
  0.323966371690E+04  0.341101780179E+04  0.359047581918E+04  0.377831874540E+04  0.397482689787E+04
  0.418027868224E+04  0.439494910623E+04  0.461910823060E+04  0.485301940433E+04  0.509693739042E+04
  0.535110624785E+04  0.561575714459E+04  0.589110587709E+04  0.617735029231E+04  0.647466747894E+04
  0.678321077715E+04  0.710310660594E+04  0.743445110603E+04  0.777730657840E+04  0.813169778138E+04
  0.849760803098E+04  0.887497515215E+04  0.926368732206E+04  0.966357873788E+04  0.100744252544E+05
  0.104959398994E+05  0.109277683923E+05  0.113694846547E+05  0.118205863594E+05  0.122804905999E+05
  0.127485296775E+05  0.132239471319E+05  0.137058940235E+05  0.141934255844E+05  0.146854982713E+05
  0.151809673402E+05  0.156785850245E+05  0.161769993384E+05  0.166747537999E+05  0.171702877851E+05
  0.176619381795E+05  0.181479417092E+05  0.186264388693E+05  0.190954787135E+05  0.195530252077E+05
  0.199969649781E+05  0.204251165206E+05  0.208352408440E+05  0.212250539761E+05  0.215922406971E+05
  0.219344702466E+05  0.222494132725E+05  0.225347605700E+05  0.227882431008E+05  0.230076533887E+05
  0.231908681093E+05  0.233358716618E+05  0.234407805422E+05  0.235038681649E+05  0.235235900533E+05
  0.234986087273E+05  0.234278183452E+05  0.233103682573E+05  0.231456854657E+05  0.229334951930E+05
  0.226738393464E+05  0.223670922687E+05  0.220139733481E+05  0.216155560262E+05  0.211732727643E+05
  0.206889155309E+05  0.201646315262E+05  0.196029137234E+05  0.190065861750E+05  0.183787838063E+05
  0.177229268159E+05  0.170426897439E+05  0.163419655306E+05  0.156248249789E+05  0.148954722996E+05
  0.141581974366E+05  0.134173260145E+05  0.126771691922E+05  0.119419712654E+05  0.112158605109E+05
  0.105028006708E+05  0.980654494715E+04  0.913059233055E+04  0.847814609089E+04  0.785207437181E+04
  0.725487344241E+04  0.668863511465E+04  0.615502070274E+04  0.565524418908E+04  0.519006674861E+04
  0.475980360345E+04  0.436434269355E+04  0.400317323797E+04  0.367542134980E+04  0.337988976738E+04
  0.311509951930E+04  0.287933230868E+04  0.267067322820E+04  0.248705367813E+04  0.232629416860E+04
  0.218614663490E+04  0.206433550064E+04  0.195859682514E+04  0.186671473352E+04  0.178655448544E+04
  0.171609162157E+04  0.165343661643E+04  0.159685503183E+04  0.154478263373E+04  0.149583588863E+04
  0.144881771439E+04  0.140271881257E+04  0.135671510542E+04  0.131016154370E+04  0.126258277404E+04
  0.121366142449E+04  0.116322423992E+04  0.111122677010E+04  0.105773711321E+04  0.100291904396E+04
  0.947015115197E+03  0.890329984746E+03  0.833214293651E+03  0.776049439334E+03  0.719233318915E+03
  0.663167296841E+03  0.608244410857E+03  0.554838974842E+03  0.503297365412E+03  0.453930342998E+03
  0.407006607762E+03  0.362747812430E+03  0.321325009274E+03  0.282856892955E+03  0.247409239962E+03
  0.214996579478E+03  0.185585236387E+03  0.159098170048E+03  0.135421626809E+03  0.114413852193E+03
  0.959157052909E+02  0.797613940556E+02  0.657850483488E+02  0.538188496239E+02  0.436847852099E+02
  0.351899899383E+02  0.281331189963E+02  0.223174718914E+02  0.175614959268E+02  0.137029350510E+02
  0.105987314150E+02  0.812353702200E+01  0.616817828814E+01  0.463832179287E+01  0.345324799301E+01
  0.254463529365E+01  0.185531917238E+01  0.133803581425E+01  0.954179117826E+00  0.672602600260E+00
  0.468493246228E+00  0.322336920783E+00  0.218987948819E+00  0.146848889647E+00  0.971612490355E-01
  0.634035384763E-01  0.407898120808E-01  0.258595430908E-01  0.161483043720E-01  0.992815188083E-02
  0.600670032098E-02  0.357447468542E-02  0.209108518893E-02  0.120193474515E-02  0.678419162901E-03
  0.375814762046E-03  0.204197625257E-03  0.108758556747E-03  0.567464770105E-04  0.289864948733E-04
  0.144858436153E-04  0.707756608346E-05  0.337836787752E-05  0.157431967128E-05  0.715666075556E-06
  0.317114132527E-06
 mkinetic energy-density pseudized
  0.246124888537E-05  0.262391872705E-05  0.279733980862E-05  0.298222270529E-05  0.317932495590E-05
  0.338945416684E-05  0.361347132112E-05  0.385229430620E-05  0.410690167493E-05  0.437833665502E-05
  0.466771142364E-05  0.497621166438E-05  0.530510142550E-05  0.565572829925E-05  0.602952894345E-05
  0.642803496809E-05  0.685287921091E-05  0.730580242782E-05  0.778866042541E-05  0.830343166499E-05
  0.885222536910E-05  0.943729016382E-05  0.100610232923E-04  0.107259804372E-04  0.114348861924E-04
  0.121906452265E-04  0.129963541849E-04  0.138553143773E-04  0.147710453050E-04  0.157472990816E-04
  0.167880758067E-04  0.178976399559E-04  0.190805378543E-04  0.203416163043E-04  0.216860424450E-04
  0.231193249240E-04  0.246473364685E-04  0.262763379479E-04  0.280130040275E-04  0.298644505170E-04
  0.318382635266E-04  0.339425305504E-04  0.361858736043E-04  0.385774845531E-04  0.411271627738E-04
  0.438453553070E-04  0.467431996630E-04  0.498325694557E-04  0.531261230543E-04  0.566373554487E-04
  0.603806535444E-04  0.643713551105E-04  0.686258116250E-04  0.731614552728E-04  0.779968703717E-04
  0.831518695202E-04  0.886475747764E-04  0.945065042035E-04  0.100752664135E-03  0.107411647536E-03
  0.114510738871E-03  0.122079025894E-03  0.130147518834E-03  0.138749277455E-03  0.147919546515E-03
  0.157695900175E-03  0.168118395953E-03  0.179229738859E-03  0.191075456367E-03  0.203704084960E-03
  0.217167368999E-03  0.231520472741E-03  0.246822206364E-03  0.263135266932E-03  0.280526495285E-03
  0.299067149912E-03  0.318833198917E-03  0.339905631285E-03  0.362370788723E-03  0.386320719425E-03
  0.411853555224E-03  0.439073913670E-03  0.468093326673E-03  0.499030697487E-03  0.532012787889E-03
  0.567174737555E-03  0.604660617766E-03  0.644624021702E-03  0.687228693756E-03  0.732649200428E-03
  0.781071645568E-03  0.832694432884E-03  0.887729078840E-03  0.946401079282E-03  0.100895083333E-02
  0.107563462835E-02  0.114672568997E-02  0.122251530154E-02  0.130331399757E-02  0.138945283600E-02
  0.148128475454E-02  0.157918601675E-02  0.168355775354E-02  0.179482760663E-02  0.191345148057E-02
  0.203991541061E-02  0.217473755390E-02  0.231847031234E-02  0.247170259569E-02  0.263506223425E-02
  0.280921855092E-02  0.299488510327E-02  0.319282260676E-02  0.340384205113E-02  0.362880802269E-02
  0.386864224621E-02  0.412432736067E-02  0.439691094468E-02  0.468750980769E-02  0.499731456482E-02
  0.532759451388E-02  0.567970283464E-02  0.605508213156E-02  0.645527034270E-02  0.688190703890E-02
  0.733674013923E-02  0.782163306985E-02  0.833857239587E-02  0.888967595726E-02  0.947720154207E-02
  0.101035561326E-01  0.107713057620E-01  0.114831860220E-01  0.122421132645E-01  0.130511965425E-01
  0.139137503401E-01  0.148333081420E-01  0.158136368999E-01  0.168587524534E-01  0.179729359683E-01
  0.191607514608E-01  0.204270644777E-01  0.217770620094E-01  0.232162737168E-01  0.247505945587E-01
  0.263863089121E-01  0.281301162830E-01  0.299891587134E-01  0.319710499956E-01  0.340839068117E-01
  0.363363819276E-01  0.387376995728E-01  0.412976931539E-01  0.440268454506E-01  0.469363314614E-01
  0.500380640699E-01  0.533447427184E-01  0.568699052850E-01  0.606279833752E-01  0.646343612502E-01
  0.689054386321E-01  0.734586976370E-01  0.783127741083E-01  0.834875336360E-01  0.890041525683E-01
  0.948852043423E-01  0.101154751478E+00  0.107838443608E+00  0.114963621928E+00  0.122559430498E+00
  0.130656934825E+00  0.139289248207E+00  0.148491666340E+00  0.158301810719E+00  0.168759781404E+00
  0.179908319753E+00  0.191792981758E+00  0.204462322680E+00  0.217968093682E+00  0.232365451255E+00
  0.247713180229E+00  0.264073931251E+00  0.281514473635E+00  0.300105964567E+00  0.319924235688E+00
  0.341050098153E+00  0.363569667326E+00  0.387574708325E+00  0.413163003732E+00  0.440438744815E+00
  0.469512947739E+00  0.500503896272E+00  0.533537612614E+00  0.568748358052E+00  0.606279165231E+00
  0.646282403941E+00  0.688920382391E+00  0.734365986076E+00  0.782803356419E+00  0.834428611485E+00
  0.889450611177E+00  0.948091769412E+00  0.101058891592E+01  0.107719421035E+01  0.114817611159E+01
  0.122382040517E+01  0.130443129174E+01  0.139033253996E+01  0.148186870671E+01  0.157940642816E+01
  0.168333578488E+01  0.179407174448E+01  0.191205568510E+01  0.203775700321E+01  0.217167480907E+01
  0.231433971309E+01  0.246631570642E+01  0.262820213858E+01  0.280063579506E+01  0.298429307738E+01
  0.317989228767E+01  0.338819601939E+01  0.361001365538E+01  0.384620397342E+01  0.409767785897E+01
  0.436540112340E+01  0.465039742506E+01  0.495375128900E+01  0.527661121944E+01  0.562019289718E+01
  0.598578245173E+01  0.637473979546E+01  0.678850200382E+01  0.722858672211E+01  0.769659557535E+01
  0.819421755303E+01  0.872323233508E+01  0.928551351943E+01  0.988303170455E+01  0.105178573724E+02
  0.111921635088E+02  0.119082278868E+02  0.126684349296E+02  0.134752770548E+02  0.143313553888E+02
  0.152393797229E+02  0.162021675676E+02  0.172226421397E+02  0.183038290954E+02  0.194488518008E+02
  0.206609249026E+02  0.219433459362E+02  0.232994846736E+02  0.247327698867E+02  0.262466731579E+02
  0.278446893409E+02  0.295303132271E+02  0.313070119380E+02  0.331781925189E+02  0.351471641660E+02
  0.372170944806E+02  0.393909591027E+02  0.416714840392E+02  0.440610799768E+02  0.465617678440E+02
  0.491750948813E+02  0.519020404840E+02  0.547429111112E+02  0.576972236099E+02  0.607635763904E+02
  0.639395080244E+02  0.672213430148E+02  0.706040247369E+02  0.740809358673E+02  0.776437070298E+02
  0.812820149008E+02  0.849833716541E+02  0.887329083984E+02  0.925131561972E+02  0.963038293663E+02
  0.100081617042E+03  0.103819990523E+03  0.107489035592E+03  0.111055320957E+03  0.114481816082E+03
  0.117727873934E+03  0.120749296619E+03  0.123498504282E+03  0.125924830007E+03  0.127974965523E+03
  0.129593584125E+03  0.130724168028E+03  0.131310066960E+03  0.131295812806E+03  0.130628710801E+03
  0.129260720552E+03  0.127150629186E+03  0.124266503311E+03  0.120588385239E+03  0.116111171158E+03
  0.110847573781E+03  0.104831028760E+03  0.981183527514E+02  0.907919018702E+02  0.829609139133E+02
  0.747616492584E+02  0.663558786143E+02  0.579272084376E+02  0.496746974883E+02  0.418032150738E+02
  0.345100415462E+02  0.279673372239E+02  0.223003334013E+02  0.175614569257E+02  0.137029350510E+02
  0.105987314150E+02  0.812353702200E+01  0.616817828814E+01  0.463832179287E+01  0.345324799301E+01
  0.254463529365E+01  0.185531917238E+01  0.133803581425E+01  0.954179117826E+00  0.672602600260E+00
  0.468493246228E+00  0.322336920783E+00  0.218987948819E+00  0.146848889647E+00  0.971612490355E-01
  0.634035384763E-01  0.407898120808E-01  0.258595430908E-01  0.161483043720E-01  0.992815188083E-02
  0.600670032098E-02  0.357447468542E-02  0.209108518893E-02  0.120193474515E-02  0.678419162901E-03
  0.375814762046E-03  0.204197625257E-03  0.108758556747E-03  0.567464770105E-04  0.289864948733E-04
  0.144858436153E-04  0.707756608346E-05  0.337836787752E-05  0.157431967128E-05  0.715666075556E-06
  0.317114132527E-06
 local pseudopotential core
 -0.170419537102E+03 -0.170420949717E+03 -0.170422317842E+03 -0.170423642879E+03 -0.170424926184E+03
 -0.170426169071E+03 -0.170427372814E+03 -0.170428538644E+03 -0.170429667756E+03 -0.170430761305E+03
 -0.170431820413E+03 -0.170432846163E+03 -0.170433839605E+03 -0.170434801757E+03 -0.170435733605E+03
 -0.170436636101E+03 -0.170437510171E+03 -0.170438356709E+03 -0.170439176583E+03 -0.170439970631E+03
 -0.170440739667E+03 -0.170441484477E+03 -0.170442205825E+03 -0.170442904450E+03 -0.170443581066E+03
 -0.170444236365E+03 -0.170444871020E+03 -0.170445485679E+03 -0.170446080973E+03 -0.170446657509E+03
 -0.170447215878E+03 -0.170447756653E+03 -0.170448280385E+03 -0.170448787612E+03 -0.170449278852E+03
 -0.170449754608E+03 -0.170450215366E+03 -0.170450661599E+03 -0.170451093762E+03 -0.170451512298E+03
 -0.170451917634E+03 -0.170452310186E+03 -0.170452690353E+03 -0.170453058526E+03 -0.170453415081E+03
 -0.170453760381E+03 -0.170454094779E+03 -0.170454418618E+03 -0.170454732227E+03 -0.170455035927E+03
 -0.170455330028E+03 -0.170455614830E+03 -0.170455890623E+03 -0.170456157689E+03 -0.170456416298E+03
 -0.170456666716E+03 -0.170456909196E+03 -0.170457143986E+03 -0.170457371323E+03 -0.170457591439E+03
 -0.170457804557E+03 -0.170458010893E+03 -0.170458210657E+03 -0.170458404049E+03 -0.170458591266E+03
 -0.170458772496E+03 -0.170458947923E+03 -0.170459117722E+03 -0.170459282063E+03 -0.170459441112E+03
 -0.170459595027E+03 -0.170459743963E+03 -0.170459888066E+03 -0.170460027479E+03 -0.170460162341E+03
 -0.170460292785E+03 -0.170460418937E+03 -0.170460540921E+03 -0.170460658856E+03 -0.170460772854E+03
 -0.170460883026E+03 -0.170460989477E+03 -0.170461092306E+03 -0.170461191611E+03 -0.170461287482E+03
 -0.170461380009E+03 -0.170461469275E+03 -0.170461555360E+03 -0.170461638339E+03 -0.170461718285E+03
 -0.170461795264E+03 -0.170461869342E+03 -0.170461940576E+03 -0.170462009025E+03 -0.170462074739E+03
 -0.170462137766E+03 -0.170462198149E+03 -0.170462255930E+03 -0.170462311143E+03 -0.170462363820E+03
 -0.170462413988E+03 -0.170462461669E+03 -0.170462506883E+03 -0.170462549643E+03 -0.170462589958E+03
 -0.170462627833E+03 -0.170462663267E+03 -0.170462696254E+03 -0.170462726785E+03 -0.170462754841E+03
 -0.170462780402E+03 -0.170462803439E+03 -0.170462823919E+03 -0.170462841800E+03 -0.170462857035E+03
 -0.170462869571E+03 -0.170462879345E+03 -0.170462886288E+03 -0.170462890322E+03 -0.170462891361E+03
 -0.170462889311E+03 -0.170462884065E+03 -0.170462875510E+03 -0.170462863519E+03 -0.170462847957E+03
 -0.170462828675E+03 -0.170462805511E+03 -0.170462778292E+03 -0.170462746828E+03 -0.170462710916E+03
 -0.170462670337E+03 -0.170462624855E+03 -0.170462574215E+03 -0.170462518144E+03 -0.170462456350E+03
 -0.170462388516E+03 -0.170462314306E+03 -0.170462233358E+03 -0.170462145285E+03 -0.170462049670E+03
 -0.170461946071E+03 -0.170461834011E+03 -0.170461712983E+03 -0.170461582443E+03 -0.170461441809E+03
 -0.170461290461E+03 -0.170461127736E+03 -0.170460952924E+03 -0.170460765269E+03 -0.170460563963E+03
 -0.170460348143E+03 -0.170460116887E+03 -0.170459869212E+03 -0.170459604070E+03 -0.170459320339E+03
 -0.170459016825E+03 -0.170458692253E+03 -0.170458345262E+03 -0.170457974402E+03 -0.170457578124E+03
 -0.170457154777E+03 -0.170456702599E+03 -0.170456219712E+03 -0.170455704112E+03 -0.170455153662E+03
 -0.170454566083E+03 -0.170453938945E+03 -0.170453269655E+03 -0.170452555451E+03 -0.170451793386E+03
 -0.170450980315E+03 -0.170450112890E+03 -0.170449187536E+03 -0.170448200444E+03 -0.170447147552E+03
 -0.170446024529E+03 -0.170444826756E+03 -0.170443549310E+03 -0.170442186941E+03 -0.170440734052E+03
 -0.170439184675E+03 -0.170437532448E+03 -0.170435770588E+03 -0.170433891862E+03 -0.170431888560E+03
 -0.170429752461E+03 -0.170427474801E+03 -0.170425046235E+03 -0.170422456803E+03 -0.170419695882E+03
 -0.170416752151E+03 -0.170413613538E+03 -0.170410267173E+03 -0.170406699335E+03 -0.170402895397E+03
 -0.170398839763E+03 -0.170394515809E+03 -0.170389905809E+03 -0.170384990867E+03 -0.170379750838E+03
 -0.170374164243E+03 -0.170368208187E+03 -0.170361858259E+03 -0.170355088435E+03 -0.170347870972E+03
 -0.170340176292E+03 -0.170331972863E+03 -0.170323227069E+03 -0.170313903070E+03 -0.170303962662E+03
 -0.170293365112E+03 -0.170282066997E+03 -0.170270022024E+03 -0.170257180840E+03 -0.170243490832E+03
 -0.170228895910E+03 -0.170213336276E+03 -0.170196748182E+03 -0.170179063668E+03 -0.170160210283E+03
 -0.170140110788E+03 -0.170118682843E+03 -0.170095838665E+03 -0.170071484675E+03 -0.170045521109E+03
 -0.170017841614E+03 -0.169988332811E+03 -0.169956873833E+03 -0.169923335828E+03 -0.169887581435E+03
 -0.169849464223E+03 -0.169808828091E+03 -0.169765506630E+03 -0.169719322446E+03 -0.169670086435E+03
 -0.169617597009E+03 -0.169561639280E+03 -0.169501984178E+03 -0.169438387525E+03 -0.169370589035E+03
 -0.169298311258E+03 -0.169221258457E+03 -0.169139115401E+03 -0.169051546092E+03 -0.168958192406E+03
 -0.168858672641E+03 -0.168752579981E+03 -0.168639480855E+03 -0.168518913198E+03 -0.168390384594E+03
 -0.168253370309E+03 -0.168107311204E+03 -0.167951611505E+03 -0.167785636454E+03 -0.167608709804E+03
 -0.167420111171E+03 -0.167219073226E+03 -0.167004778724E+03 -0.166776357364E+03 -0.166532882470E+03
 -0.166273367495E+03 -0.165996762340E+03 -0.165701949473E+03 -0.165387739872E+03 -0.165052868771E+03
 -0.164695991214E+03 -0.164315677437E+03 -0.163910408071E+03 -0.163478569188E+03 -0.163018447220E+03
 -0.162528223759E+03 -0.162005970291E+03 -0.161449642903E+03 -0.160857077032E+03 -0.160225982313E+03
 -0.159553937637E+03 -0.158838386520E+03 -0.158076632925E+03 -0.157265837697E+03 -0.156403015813E+03
 -0.155485034673E+03 -0.154508613712E+03 -0.153470325644E+03 -0.152366599705E+03 -0.151193727316E+03
 -0.149947870610E+03 -0.148625074366E+03 -0.147221281861E+03 -0.145732355265E+03 -0.144154101132E+03
 -0.142482301607E+03 -0.140712751934E+03 -0.138841304820E+03 -0.136863922328E+03 -0.134776736105E+03
 -0.132576117318E+03 -0.130258758637E+03 -0.127821772487E+03 -0.125262812538E+03 -0.122580229059E+03
 -0.119773271760E+03 -0.116842352862E+03 -0.113789370936E+03 -0.110618060917E+03 -0.107334264143E+03
 -0.103945902820E+03 -0.100462343388E+03 -0.968929062687E+02 -0.932448542294E+02 -0.895225733479E+02
 -0.857313037065E+02 -0.818880617199E+02 -0.780358333759E+02 -0.742473243088E+02 -0.706440350099E+02
 -0.673676290197E+02 -0.644619319781E+02 -0.619683360442E+02 -0.599284345816E+02 -0.583796623680E+02
 -0.573483530309E+02 -0.564049902626E+02 -0.546210802335E+02 -0.528996689676E+02 -0.512328440922E+02
 -0.496187824367E+02 -0.480557353139E+02 -0.465420447751E+02 -0.450761138085E+02 -0.436564113209E+02
 -0.422814579106E+02 -0.409498296230E+02 -0.396601648757E+02 -0.384111132984E+02 -0.372014105719E+02
 -0.360298090009E+02 -0.348951073700E+02 -0.337961428427E+02 -0.327317889712E+02 -0.317009553098E+02
 -0.307025861793E+02 -0.297356589850E+02 -0.287991834979E+02 -0.278922006685E+02 -0.270137815368E+02
 -0.261630366058E+02 -0.253390651934E+02 -0.245410526913E+02 -0.237681721638E+02 -0.230196321567E+02
 -0.222946661137E+02
 pspotential valence only
 -0.284683254939E+02 -0.284697381271E+02 -0.284711062722E+02 -0.284724313301E+02 -0.284737146577E+02
 -0.284749575687E+02 -0.284761613369E+02 -0.284773271946E+02 -0.284784563356E+02 -0.284795499162E+02
 -0.284806090569E+02 -0.284816348417E+02 -0.284826283219E+02 -0.284835905140E+02 -0.284845224041E+02
 -0.284854249463E+02 -0.284862990646E+02 -0.284871456545E+02 -0.284879655834E+02 -0.284887596902E+02
 -0.284895287887E+02 -0.284902736661E+02 -0.284909950857E+02 -0.284916937861E+02 -0.284923704830E+02
 -0.284930258689E+02 -0.284936606159E+02 -0.284942753734E+02 -0.284948707712E+02 -0.284954474190E+02
 -0.284960059074E+02 -0.284965468085E+02 -0.284970706761E+02 -0.284975780470E+02 -0.284980694407E+02
 -0.284985453605E+02 -0.284990062936E+02 -0.284994527124E+02 -0.284998850740E+02 -0.285003038213E+02
 -0.285007093833E+02 -0.285011021753E+02 -0.285014825995E+02 -0.285018510457E+02 -0.285022078914E+02
 -0.285025535021E+02 -0.285028882318E+02 -0.285032124235E+02 -0.285035264093E+02 -0.285038305108E+02
 -0.285041250397E+02 -0.285044102975E+02 -0.285046865768E+02 -0.285049541606E+02 -0.285052133230E+02
 -0.285054643298E+02 -0.285057074382E+02 -0.285059428973E+02 -0.285061709484E+02 -0.285063918256E+02
 -0.285066057551E+02 -0.285068129563E+02 -0.285070136418E+02 -0.285072080174E+02 -0.285073962824E+02
 -0.285075786302E+02 -0.285077552478E+02 -0.285079263164E+02 -0.285080920118E+02 -0.285082525042E+02
 -0.285084079583E+02 -0.285085585338E+02 -0.285087043857E+02 -0.285088456639E+02 -0.285089825138E+02
 -0.285091150761E+02 -0.285092434873E+02 -0.285093678798E+02 -0.285094883820E+02 -0.285096051179E+02
 -0.285097182082E+02 -0.285098277696E+02 -0.285099339157E+02 -0.285100367561E+02 -0.285101363974E+02
 -0.285102329431E+02 -0.285103264934E+02 -0.285104171457E+02 -0.285105049943E+02 -0.285105901311E+02
 -0.285106726449E+02 -0.285107526223E+02 -0.285108301473E+02 -0.285109053014E+02 -0.285109781641E+02
 -0.285110488125E+02 -0.285111173215E+02 -0.285111837644E+02 -0.285112482121E+02 -0.285113107339E+02
 -0.285113713974E+02 -0.285114302684E+02 -0.285114874111E+02 -0.285115428883E+02 -0.285115967613E+02
 -0.285116490901E+02 -0.285116999333E+02 -0.285117493486E+02 -0.285117973923E+02 -0.285118441197E+02
 -0.285118895855E+02 -0.285119338432E+02 -0.285119769456E+02 -0.285120189449E+02 -0.285120598926E+02
 -0.285120998398E+02 -0.285121388371E+02 -0.285121769347E+02 -0.285122141827E+02 -0.285122506311E+02
 -0.285122863296E+02 -0.285123213283E+02 -0.285123556771E+02 -0.285123894265E+02 -0.285124226271E+02
 -0.285124553304E+02 -0.285124875881E+02 -0.285125194530E+02 -0.285125509785E+02 -0.285125822193E+02
 -0.285126132311E+02 -0.285126440711E+02 -0.285126747978E+02 -0.285127054715E+02 -0.285127361543E+02
 -0.285127669105E+02 -0.285127978063E+02 -0.285128289107E+02 -0.285128602951E+02 -0.285128920341E+02
 -0.285129242051E+02 -0.285129568892E+02 -0.285129901712E+02 -0.285130241396E+02 -0.285130588877E+02
 -0.285130945129E+02 -0.285131311181E+02 -0.285131688112E+02 -0.285132077060E+02 -0.285132479227E+02
 -0.285132895879E+02 -0.285133328354E+02 -0.285133778067E+02 -0.285134246515E+02 -0.285134735280E+02
 -0.285135246042E+02 -0.285135780579E+02 -0.285136340776E+02 -0.285136928634E+02 -0.285137546275E+02
 -0.285138195953E+02 -0.285138880062E+02 -0.285139601145E+02 -0.285140361905E+02 -0.285141165216E+02
 -0.285142014133E+02 -0.285142911905E+02 -0.285143861989E+02 -0.285144868063E+02 -0.285145934040E+02
 -0.285147064088E+02 -0.285148262640E+02 -0.285149534418E+02 -0.285150884449E+02 -0.285152318086E+02
 -0.285153841030E+02 -0.285155459353E+02 -0.285157179524E+02 -0.285159008433E+02 -0.285160953418E+02
 -0.285163022301E+02 -0.285165223414E+02 -0.285167565633E+02 -0.285170058417E+02 -0.285172711848E+02
 -0.285175536665E+02 -0.285178544315E+02 -0.285181746997E+02 -0.285185157709E+02 -0.285188790308E+02
 -0.285192659558E+02 -0.285196781195E+02 -0.285201171993E+02 -0.285205849827E+02 -0.285210833750E+02
 -0.285216144068E+02 -0.285221802425E+02 -0.285227831889E+02 -0.285234257049E+02 -0.285241104112E+02
 -0.285248401009E+02 -0.285256177512E+02 -0.285264465355E+02 -0.285273298358E+02 -0.285282712570E+02
 -0.285292746413E+02 -0.285303440839E+02 -0.285314839493E+02 -0.285326988895E+02 -0.285339938624E+02
 -0.285353741521E+02 -0.285368453903E+02 -0.285384135789E+02 -0.285400851146E+02 -0.285418668143E+02
 -0.285437659428E+02 -0.285457902421E+02 -0.285479479626E+02 -0.285502478960E+02 -0.285526994109E+02
 -0.285553124903E+02 -0.285580977715E+02 -0.285610665889E+02 -0.285642310189E+02 -0.285676039282E+02
 -0.285711990254E+02 -0.285750309147E+02 -0.285791151548E+02 -0.285834683196E+02 -0.285881080644E+02
 -0.285930531950E+02 -0.285983237421E+02 -0.286039410397E+02 -0.286099278085E+02 -0.286163082449E+02
 -0.286231081153E+02 -0.286303548557E+02 -0.286380776784E+02 -0.286463076848E+02 -0.286550779846E+02
 -0.286644238234E+02 -0.286743827172E+02 -0.286849945954E+02 -0.286963019524E+02 -0.287083500084E+02
 -0.287211868802E+02 -0.287348637617E+02 -0.287494351160E+02 -0.287649588782E+02 -0.287814966715E+02
 -0.287991140354E+02 -0.288178806686E+02 -0.288378706855E+02 -0.288591628897E+02 -0.288818410637E+02
 -0.289059942762E+02 -0.289317172092E+02 -0.289591105063E+02 -0.289882811421E+02 -0.290193428172E+02
 -0.290524163789E+02 -0.290876302704E+02 -0.291251210119E+02 -0.291650337155E+02 -0.292075226382E+02
 -0.292527517763E+02 -0.293008955057E+02 -0.293521392725E+02 -0.294066803402E+02 -0.294647285981E+02
 -0.295265074381E+02 -0.295922547054E+02 -0.296622237316E+02 -0.297366844547E+02 -0.298159246331E+02
 -0.299002511574E+02 -0.299899914619E+02 -0.300854950331E+02 -0.301871350062E+02 -0.302953098315E+02
 -0.304104449766E+02 -0.305329946137E+02 -0.306634432095E+02 -0.308023068980E+02 -0.309501344631E+02
 -0.311075076831E+02 -0.312750406914E+02 -0.314533778800E+02 -0.316431897005E+02 -0.318451655059E+02
 -0.320600023150E+02 -0.322883880770E+02 -0.325309776931E+02 -0.327883597634E+02 -0.330610118773E+02
 -0.333492424278E+02 -0.336531176630E+02 -0.339723743103E+02 -0.343063208921E+02 -0.346537346687E+02
 -0.350127648590E+02 -0.353808530483E+02 -0.357546715064E+02 -0.361300480027E+02 -0.365017784125E+02
 -0.368631247339E+02 -0.372047035859E+02 -0.375125522453E+02 -0.377657441997E+02 -0.379353184151E+02
 -0.379879389853E+02 -0.378969925173E+02 -0.376572676136E+02 -0.372895576797E+02 -0.368609888139E+02
 -0.364580391316E+02 -0.360705398812E+02 -0.356893344048E+02 -0.353112759769E+02 -0.349371692593E+02
 -0.345669009289E+02 -0.341257389052E+02 -0.337108267652E+02 -0.332925072698E+02 -0.328642387355E+02
 -0.324255741088E+02 -0.319762374261E+02 -0.315162189773E+02 -0.310457677673E+02 -0.305653859428E+02
 -0.300757994671E+02 -0.295778859655E+02 -0.290726427811E+02 -0.285611001088E+02 -0.280442533230E+02
 -0.275230192225E+02 -0.269981679715E+02 -0.264702980396E+02 -0.259398216884E+02 -0.254069826533E+02
 -0.248718994035E+02 -0.243346314120E+02 -0.237952586509E+02 -0.232539624826E+02 -0.227110955590E+02
 -0.221672327097E+02 -0.216231877485E+02 -0.210800244667E+02 -0.205390174919E+02 -0.200016158604E+02
 -0.194693867508E+02
 core charge-density (pseudized)
  0.158850899689E-07  0.169349736624E-07  0.180542466866E-07  0.192474951488E-07  0.205196082630E-07
  0.218757983829E-07  0.233216223594E-07  0.248630043089E-07  0.265062598867E-07  0.282581221651E-07
  0.301257692211E-07  0.321168535480E-07  0.342395334107E-07  0.365025062734E-07  0.389150444365E-07
  0.414870330287E-07  0.442290105108E-07  0.471522118554E-07  0.502686145814E-07  0.535909878306E-07
  0.571329446878E-07  0.609089979589E-07  0.649346196361E-07  0.692263042922E-07  0.738016366658E-07
  0.786793637127E-07  0.838794714198E-07  0.894232666954E-07  0.953334646720E-07  0.101634281779E-06
  0.108351534969E-06  0.115512747495E-06  0.123147261690E-06  0.131286359191E-06  0.139963389111E-06
  0.149213904686E-06  0.159075808951E-06  0.169589510039E-06  0.180798086755E-06  0.192747465083E-06
  0.205486606363E-06  0.219067707906E-06  0.233546416867E-06  0.248982058249E-06  0.265437877988E-06
  0.282981302089E-06  0.301684212902E-06  0.321623243648E-06  0.342880092415E-06  0.365541856912E-06
  0.389701391334E-06  0.415457686827E-06  0.442916277090E-06  0.472189670789E-06  0.503397812546E-06
  0.536668574398E-06  0.572138279738E-06  0.609952261885E-06  0.650265459564E-06  0.693243051754E-06
  0.739061134484E-06  0.787907442368E-06  0.839982117817E-06  0.895498531103E-06  0.954684154611E-06
  0.101778149488E-05  0.108504908622E-05  0.115676255007E-05  0.123321572426E-05  0.131472186699E-05
  0.140161494038E-05  0.149425097881E-05  0.159300954771E-05  0.169829529876E-05  0.181053962793E-05
  0.193020244302E-05  0.205777404804E-05  0.219377715217E-05  0.233876901146E-05  0.249334371211E-05
  0.265813460454E-05  0.283381689853E-05  0.302111042968E-05  0.322078260881E-05  0.343365156625E-05
  0.366058950397E-05  0.390252626918E-05  0.416045316422E-05  0.443542700810E-05  0.472857446660E-05
  0.504109666844E-05  0.537427412660E-05  0.572947198482E-05  0.610814561085E-05  0.651184655941E-05
  0.694222892908E-05  0.740105613948E-05  0.789020815618E-05  0.841168919314E-05  0.896763592422E-05
  0.956032623723E-05  0.101921885666E-04  0.108658118429E-04  0.115839560993E-04  0.123495637799E-04
  0.131657717945E-04  0.140359243703E-04  0.149635867530E-04  0.159525598129E-04  0.170068956168E-04
  0.181309140281E-04  0.193292204042E-04  0.206067244636E-04  0.219686603991E-04  0.234206083207E-04
  0.249685171141E-04  0.266187288110E-04  0.283780045687E-04  0.302535523666E-04  0.322530565318E-04
  0.343847092167E-04  0.366572439552E-04  0.390799714357E-04  0.416628176384E-04  0.444163644905E-04
  0.473518932085E-04  0.504814305022E-04  0.538177978316E-04  0.573746639168E-04  0.611666007161E-04
  0.652091431015E-04  0.695188524752E-04  0.741133845867E-04  0.790115618292E-04  0.842334503093E-04
  0.898004420053E-04  0.957353423503E-04  0.102062463597E-03  0.108807724347E-03  0.115998755648E-03
  0.123665014094E-03  0.131837902394E-03  0.140550897889E-03  0.149839689558E-03  0.159742324059E-03
  0.170299361400E-03  0.181554040889E-03  0.193552458017E-03  0.206343753015E-03  0.219980311839E-03
  0.234517980402E-03  0.250016292931E-03  0.266538715372E-03  0.284152904832E-03  0.302930986106E-03
  0.322949846427E-03  0.344291449616E-03  0.367043170908E-03  0.391298153825E-03  0.417155690514E-03
  0.444721627115E-03  0.474108795766E-03  0.505437475018E-03  0.538835880487E-03  0.574440687740E-03
  0.612397589507E-03  0.652861889451E-03  0.695999134887E-03  0.741985790982E-03  0.791009959124E-03
  0.843272142330E-03  0.898986060746E-03  0.958379520474E-03  0.102169533918E-02  0.108919233216E-02
  0.116114636271E-02  0.123785146100E-02  0.131962101582E-02  0.140678904387E-02  0.149971154154E-02
  0.159876792447E-02  0.170436256045E-02  0.181692640162E-02  0.193691872220E-02  0.206482896848E-02
  0.220117872808E-02  0.234652382591E-02  0.250145655494E-02  0.266660804989E-02  0.284265081290E-02
  0.303030140045E-02  0.323032328145E-02  0.344352987696E-02  0.367078779245E-02  0.391302025435E-02
  0.417121076298E-02  0.444640697483E-02  0.473972482752E-02  0.505235292185E-02  0.538555717557E-02
  0.574068576454E-02  0.611917436752E-02  0.652255173154E-02  0.695244557544E-02  0.741058885008E-02
  0.789882637401E-02  0.841912186447E-02  0.897356538393E-02  0.956438122282E-02  0.101939362401E-01
  0.108647486828E-01  0.115794975075E-01  0.123410322246E-01  0.131523832881E-01  0.140167730542E-01
  0.149376273269E-01  0.159185875152E-01  0.169635234187E-01  0.180765466621E-01  0.192620247931E-01
  0.205245960596E-01  0.218691848759E-01  0.233010179867E-01  0.248256413302E-01  0.264489375990E-01
  0.281771444893E-01  0.300168736216E-01  0.319751301066E-01  0.340593327208E-01  0.362773346404E-01
  0.386374446716E-01  0.411484488953E-01  0.438196326246E-01  0.466608025533E-01  0.496823089450E-01
  0.528950676826E-01  0.563105819652E-01  0.599409633995E-01  0.637989521880E-01  0.678979360665E-01
  0.722519675861E-01  0.768757792715E-01  0.817847961130E-01  0.869951447703E-01  0.925236587738E-01
  0.983878789095E-01  0.104606047856E+00  0.111197098026E+00  0.118180631410E+00  0.125576890089E+00
  0.133406715896E+00  0.141691497534E+00  0.150453103263E+00  0.159713797041E+00  0.169496135792E+00
  0.179822845227E+00  0.190716671374E+00  0.202200204726E+00  0.214295673644E+00  0.227024703349E+00
  0.240408036607E+00  0.254465211927E+00  0.269214194858E+00  0.284670957798E+00  0.300849003557E+00
  0.317758827869E+00  0.335407316081E+00  0.353797069410E+00  0.372925656495E+00  0.392784786538E+00
  0.413359401140E+00  0.434626683071E+00  0.456554981802E+00  0.479102657604E+00  0.502216848651E+00
  0.525832168810E+00  0.549869347839E+00  0.574233830650E+00  0.598814358233E+00  0.623481559867E+00
  0.648086594575E+00  0.672459889336E+00  0.696410032536E+00  0.719722893489E+00  0.742161052417E+00
  0.763463640029E+00  0.783346701288E+00  0.801504213699E+00  0.817609905660E+00  0.831320034071E+00
  0.842277290994E+00  0.850116014825E+00  0.854468879722E+00  0.854975224885E+00  0.851291158898E+00
  0.843101529429E+00  0.830133779791E+00  0.812173615663E+00  0.789082271343E+00  0.760814989247E+00
  0.727440103218E+00  0.689157841522E+00  0.646317637620E+00  0.599432358703E+00  0.549187442962E+00
  0.496442495144E+00  0.442222457189E+00  0.387695093883E+00  0.334131279817E+00  0.282844534494E+00
  0.235106544671E+00  0.192036181160E+00  0.154460929685E+00  0.122751894914E+00  0.966509407173E-01
  0.754197350591E-01  0.583105682925E-01  0.446553131657E-01  0.338641471811E-01  0.254227490621E-01
  0.188882113068E-01  0.138839137385E-01  0.100936590292E-01  0.725537509450E-02  0.515466309716E-02
  0.361842930266E-02  0.250879268147E-02  0.171741309607E-02  0.116033964584E-02  0.773437417305E-03
  0.508414784907E-03  0.329443540380E-03  0.210340978410E-03  0.132266603092E-03  0.818759218551E-04
  0.498690344207E-04  0.298714443437E-04  0.175875916060E-04  0.101729842592E-04  0.577752330293E-05
  0.321986957660E-05  0.175987680434E-05  0.942778890139E-06  0.494707936977E-06  0.254108048780E-06
  0.127681574306E-06  0.627159654587E-07  0.300924318689E-07  0.140943050873E-07  0.643877401768E-08
  0.286674509825E-08
 pseudo wavefunction
  0.575355347414E-04  0.594064467959E-04  0.613381962429E-04  0.633327613625E-04  0.653921847638E-04
  0.675185754763E-04  0.697141111098E-04  0.719810400846E-04  0.743216839340E-04  0.767384396819E-04
  0.792337822973E-04  0.818102672291E-04  0.844705330228E-04  0.872173040230E-04  0.900533931633E-04
  0.929817048467E-04  0.960052379201E-04  0.991270887455E-04  0.102350454371E-03  0.105678635804E-03
  0.109115041394E-03  0.112663190320E-03  0.116326716196E-03  0.120109370793E-03  0.124015027879E-03
  0.128047687189E-03  0.132211478517E-03  0.136510665951E-03  0.140949652232E-03  0.145532983271E-03
  0.150265352799E-03  0.155151607175E-03  0.160196750351E-03  0.165405948993E-03  0.170784537776E-03
  0.176338024845E-03  0.182072097454E-03  0.187992627794E-03  0.194105679006E-03  0.200417511387E-03
  0.206934588804E-03  0.213663585314E-03  0.220611391995E-03  0.227785124008E-03  0.235192127880E-03
  0.242839989029E-03  0.250736539531E-03  0.258889866144E-03  0.267308318583E-03  0.276000518079E-03
  0.284975366201E-03  0.294242053974E-03  0.303810071296E-03  0.313689216649E-03  0.323889607138E-03
  0.334421688850E-03  0.345296247555E-03  0.356524419746E-03  0.368117704048E-03  0.380087972993E-03
  0.392447485177E-03  0.405208897814E-03  0.418385279700E-03  0.431990124593E-03  0.446037365035E-03
  0.460541386620E-03  0.475517042723E-03  0.490979669714E-03  0.506945102664E-03  0.523429691556E-03
  0.540450318037E-03  0.558024412700E-03  0.576169972936E-03  0.594905581365E-03  0.614250424868E-03
  0.634224314231E-03  0.654847704436E-03  0.676141715611E-03  0.698128154653E-03  0.720829537562E-03
  0.744269112502E-03  0.768470883604E-03  0.793459635553E-03  0.819260958964E-03  0.845901276593E-03
  0.873407870393E-03  0.901808909454E-03  0.931133478849E-03  0.961411609419E-03  0.992674308528E-03
  0.102495359182E-02  0.105828251598E-02  0.109269521264E-02  0.112822692327E-02  0.116491403530E-02
  0.120279411939E-02  0.124190596788E-02  0.128228963454E-02  0.132398647555E-02  0.136703919190E-02
  0.141149187307E-02  0.145739004223E-02  0.150478070279E-02  0.155371238660E-02  0.160423520360E-02
  0.165640089318E-02  0.171026287709E-02  0.176587631424E-02  0.182329815708E-02  0.188258721000E-02
  0.194380418952E-02  0.200701178645E-02  0.207227473008E-02  0.213965985449E-02  0.220923616697E-02
  0.228107491867E-02  0.235524967759E-02  0.243183640385E-02  0.251091352754E-02  0.259256202897E-02
  0.267686552162E-02  0.276391033773E-02  0.285378561671E-02  0.294658339640E-02  0.304239870730E-02
  0.314132966987E-02  0.324347759500E-02  0.334894708771E-02  0.345784615425E-02  0.357028631269E-02
  0.368638270708E-02  0.380625422530E-02  0.393002362081E-02  0.405781763827E-02  0.418976714331E-02
  0.432600725647E-02  0.446667749152E-02  0.461192189824E-02  0.476188920988E-02  0.491673299540E-02
  0.507661181657E-02  0.524168939035E-02  0.541213475631E-02  0.558812244973E-02  0.576983268009E-02
  0.595745151554E-02  0.615117107322E-02  0.635118971583E-02  0.655771225459E-02  0.677095015869E-02
  0.699112177165E-02  0.721845253461E-02  0.745317521688E-02  0.769553015401E-02  0.794576549352E-02
  0.820413744857E-02  0.847091055996E-02  0.874635796647E-02  0.903076168407E-02  0.932441289409E-02
  0.962761224075E-02  0.994067013832E-02  0.102639070882E-01  0.105976540061E-01  0.109422525603E-01
  0.112980555200E-01  0.116654271158E-01  0.120447434111E-01  0.124363926859E-01  0.128407758327E-01
  0.132583067657E-01  0.136894128422E-01  0.141345352983E-01  0.145941296989E-01  0.150686664009E-01
  0.155586310324E-01  0.160645249872E-01  0.165868659342E-01  0.171261883444E-01  0.176830440334E-01
  0.182580027226E-01  0.188516526171E-01  0.194646010028E-01  0.200974748619E-01  0.207509215086E-01
  0.214256092443E-01  0.221222280340E-01  0.228414902039E-01  0.235841311607E-01  0.243509101343E-01
  0.251426109430E-01  0.259600427831E-01  0.268040410429E-01  0.276754681426E-01  0.285752143996E-01
  0.295041989207E-01  0.304633705225E-01  0.314537086791E-01  0.324762244998E-01  0.335319617355E-01
  0.346219978170E-01  0.357474449230E-01  0.369094510819E-01  0.381092013054E-01  0.393479187556E-01
  0.406268659478E-01  0.419473459869E-01  0.433107038408E-01  0.447183276504E-01  0.461716500761E-01
  0.476721496838E-01  0.492213523683E-01  0.508208328170E-01  0.524722160129E-01  0.541771787786E-01
  0.559374513607E-01  0.577548190562E-01  0.596311238795E-01  0.615682662727E-01  0.635682068564E-01
  0.656329682232E-01  0.677646367731E-01  0.699653645899E-01  0.722373713589E-01  0.745829463247E-01
  0.770044502882E-01  0.795043176423E-01  0.820850584435E-01  0.847492605189E-01  0.874995916053E-01
  0.903388015194E-01  0.932697243532E-01  0.962952806953E-01  0.994184798691E-01  0.102642422187E+00
  0.105970301215E+00  0.109405406033E+00  0.112951123506E+00  0.116610940521E+00  0.120388446224E+00
  0.124287334210E+00  0.128311404677E+00  0.132464566515E+00  0.136750839334E+00  0.141174355391E+00
  0.145739361417E+00  0.150450220313E+00  0.155311412692E+00  0.160327538239E+00  0.165503316871E+00
  0.170843589644E+00  0.176353319387E+00  0.182037591014E+00  0.187901611466E+00  0.193950709243E+00
  0.200190333447E+00  0.206626052301E+00  0.213263551044E+00  0.220108629141E+00  0.227167196717E+00
  0.234445270112E+00  0.241948966447E+00  0.249684497087E+00  0.257658159858E+00  0.265876329868E+00
  0.274345448775E+00  0.283072012294E+00  0.292062555759E+00  0.301323637496E+00  0.310861819756E+00
  0.320683646913E+00  0.330795620636E+00  0.341204171652E+00  0.351915627735E+00  0.362936177473E+00
  0.374271829350E+00  0.385928365590E+00  0.397911290193E+00  0.410225770506E+00  0.422876571603E+00
  0.435867982691E+00  0.449203734658E+00  0.462886907800E+00  0.476919828678E+00  0.491303954927E+00
  0.506039746769E+00  0.521126523834E+00  0.536562305798E+00  0.552343635204E+00  0.568465380740E+00
  0.584920519078E+00  0.601699893320E+00  0.618791945934E+00  0.636182424019E+00  0.653854054636E+00
  0.671786187949E+00  0.689954405900E+00  0.708330094256E+00  0.726879976015E+00  0.745565604418E+00
  0.764342814255E+00  0.783161130667E+00  0.801963135452E+00  0.820683791893E+00  0.839249730401E+00
  0.857578498949E+00  0.875577784285E+00  0.893144612430E+00  0.910164539979E+00  0.926510851286E+00
  0.942043780836E+00  0.956609784897E+00  0.970040892017E+00  0.982154168004E+00  0.992751337569E+00
  0.100161861173E+01  0.100852677707E+01  0.101323160973E+01  0.101547468295E+01  0.101498464155E+01
  0.101147901924E+01  0.100466111497E+01  0.994375950448E+00  0.980707901591E+00  0.963803639329E+00
  0.943836461172E+00  0.921004116597E+00  0.895526241359E+00  0.867641520215E+00  0.837604615000E+00
  0.805682938619E+00  0.772153342384E+00  0.737298744582E+00  0.701404760904E+00  0.664756390336E+00
  0.627634741711E+00  0.590313873286E+00  0.553057756365E+00  0.516117401327E+00  0.479728188657E+00
  0.444107456577E+00  0.409452404308E+00  0.375938372688E+00  0.343717559055E+00  0.312918210115E+00
  0.283644316716E+00  0.255975805584E+00  0.229969207138E+00  0.205658740221E+00  0.183057753088E+00
  0.162160440109E+00
 ae wavefunction
  0.723210491956E-03  0.746578583770E-03  0.770700951993E-03  0.795601892227E-03  0.821306479369E-03
  0.847840592488E-03  0.875230940375E-03  0.903505087772E-03  0.932691482807E-03  0.962819484716E-03
  0.993919392949E-03  0.102602247680E-02  0.105916100625E-02  0.109336828344E-02  0.112867867548E-02
  0.116512764795E-02  0.120275179956E-02  0.124158889799E-02  0.128167791659E-02  0.132305907237E-02
  0.136577386512E-02  0.140986511768E-02  0.145537701746E-02  0.150235515925E-02  0.155084658925E-02
  0.160089985052E-02  0.165256502971E-02  0.170589380529E-02  0.176093949712E-02  0.181775711760E-02
  0.187640342429E-02  0.193693697409E-02  0.199941817908E-02  0.206390936390E-02  0.213047482499E-02
  0.219918089139E-02  0.227009598742E-02  0.234329069717E-02  0.241883783086E-02  0.249681249307E-02
  0.257729215303E-02  0.266035671683E-02  0.274608860172E-02  0.283457281255E-02  0.292589702034E-02
  0.302015164303E-02  0.311742992854E-02  0.321782804011E-02  0.332144514397E-02  0.342838349946E-02
  0.353874855160E-02  0.365264902612E-02  0.377019702712E-02  0.389150813722E-02  0.401670152049E-02
  0.414590002798E-02  0.427923030608E-02  0.441682290755E-02  0.455881240553E-02  0.470533751028E-02
  0.485654118900E-02  0.501257078845E-02  0.517357816061E-02  0.533971979149E-02  0.551115693279E-02
  0.568805573680E-02  0.587058739433E-02  0.605892827584E-02  0.625326007563E-02  0.645376995923E-02
  0.666065071397E-02  0.687410090265E-02  0.709432502044E-02  0.732153365478E-02  0.755594364866E-02
  0.779777826652E-02  0.804726736390E-02  0.830464755909E-02  0.857016240900E-02  0.884406258640E-02
  0.912660606132E-02  0.941805828423E-02  0.971869237195E-02  0.100287892964E-01  0.103486380750E-01
  0.106785359635E-01  0.110187886512E-01  0.113697104566E-01  0.117316245259E-01  0.121048630323E-01
  0.124897673751E-01  0.128866883819E-01  0.132959865080E-01  0.137180320384E-01  0.141532052878E-01
  0.146018967997E-01  0.150645075448E-01  0.155414491166E-01  0.160331439246E-01  0.165400253848E-01
  0.170625381058E-01  0.176011380701E-01  0.181562928105E-01  0.187284815799E-01  0.193181955137E-01
  0.199259377844E-01  0.205522237464E-01  0.211975810705E-01  0.218625498668E-01  0.225476827944E-01
  0.232535451563E-01  0.239807149791E-01  0.247297830737E-01  0.255013530778E-01  0.262960414763E-01
  0.271144775983E-01  0.279573035892E-01  0.288251743544E-01  0.297187574729E-01  0.306387330781E-01
  0.315857937031E-01  0.325606440870E-01  0.335640009402E-01  0.345965926640E-01  0.356591590220E-01
  0.367524507593E-01  0.378772291652E-01  0.390342655757E-01  0.402243408110E-01  0.414482445436E-01
  0.427067745919E-01  0.440007361337E-01  0.453309408352E-01  0.466982058883E-01  0.481033529513E-01
  0.495472069857E-01  0.510305949826E-01  0.525543445725E-01  0.541192825097E-01  0.557262330238E-01
  0.573760160317E-01  0.590694451993E-01  0.608073258461E-01  0.625904526816E-01  0.644196073662E-01
  0.662955558838E-01  0.682190457186E-01  0.701908028232E-01  0.722115283678E-01  0.742818952600E-01
  0.764025444212E-01  0.785740808093E-01  0.807970691759E-01  0.830720295419E-01  0.853994323839E-01
  0.877796935126E-01  0.902131686350E-01  0.927001475833E-01  0.952408481994E-01  0.978354098603E-01
  0.100483886632E+00  0.103186240036E+00  0.105942331426E+00  0.108751913939E+00  0.111614624041E+00
  0.114529972627E+00  0.117497335686E+00  0.120515944498E+00  0.123584875391E+00  0.126703039005E+00
  0.129869169099E+00  0.133081810868E+00  0.136339308790E+00  0.139639793985E+00  0.142981171101E+00
  0.146361104728E+00  0.149777005361E+00  0.153226014901E+00  0.156704991737E+00  0.160210495417E+00
  0.163738770941E+00  0.167285732697E+00  0.170846948100E+00  0.174417620953E+00  0.177992574602E+00
  0.181566234937E+00  0.185132613303E+00  0.188685289405E+00  0.192217394292E+00  0.195721593504E+00
  0.199190070517E+00  0.202614510568E+00  0.205986085027E+00  0.209295436430E+00  0.212532664351E+00
  0.215687312275E+00  0.218748355654E+00  0.221704191362E+00  0.224542628748E+00  0.227250882534E+00
  0.229815567796E+00  0.232222697309E+00  0.234457681522E+00  0.236505331475E+00  0.238349864969E+00
  0.239974916327E+00  0.241363550084E+00  0.242498278978E+00  0.243361086622E+00  0.243933455227E+00
  0.244196398801E+00  0.244130502213E+00  0.243715966544E+00  0.242932661134E+00  0.241760182755E+00
  0.240177922301E+00  0.238165139411E+00  0.235701045406E+00  0.232764894903E+00  0.229336086443E+00
  0.225394272444E+00  0.220919478726E+00  0.215892233821E+00  0.210293708226E+00  0.204105863651E+00
  0.197311612280E+00  0.189894985941E+00  0.181841314980E+00  0.173137416545E+00  0.163771791829E+00
  0.153734831728E+00  0.143019030191E+00  0.131619204408E+00  0.119532720834E+00  0.106759725824E+00
  0.933033795277E-01  0.791700914244E-01  0.643697556857E-01  0.489159842511E-01  0.328263352024E-01
  0.161225336665E-01 -0.116931789868E-02 -0.190185435298E-01 -0.373897154028E-01 -0.562424969619E-01
 -0.755315106483E-01 -0.952062321565E-01 -0.115210911281E+00 -0.135484517197E+00 -0.155960704264E+00
 -0.176567794242E+00 -0.197228773280E+00 -0.217861307379E+00 -0.238377787431E+00 -0.258685422148E+00
 -0.278686401205E+00 -0.298278148790E+00 -0.317353678585E+00 -0.335802047802E+00 -0.353508896551E+00
 -0.370357054796E+00 -0.386227202908E+00 -0.400998578759E+00 -0.414549729935E+00 -0.426759311736E+00
 -0.437506930652E+00 -0.446674029444E+00 -0.454144808540E+00 -0.459807175066E+00 -0.463553710585E+00
 -0.465282647871E+00 -0.464898847424E+00 -0.462314764450E+00 -0.457451398192E+00 -0.450239215408E+00
 -0.440619040450E+00 -0.428542905017E+00 -0.413974850508E+00 -0.396891676564E+00 -0.377283628995E+00
 -0.355155020605E+00 -0.330524777997E+00 -0.303426906672E+00 -0.273910866599E+00 -0.242041849499E+00
 -0.207900947753E+00 -0.171585205060E+00 -0.133207537940E+00 -0.928965176587E-01 -0.507960038343E-01
 -0.706462318874E-02  0.381249082892E-01  0.845866157243E-01  0.132122236961E+00  0.180522317286E+00
  0.229567404370E+00  0.279029321687E+00  0.328672508685E+00  0.378255438406E+00  0.427532163428E+00
  0.476254096171E+00  0.524172207141E+00  0.571039903275E+00  0.616616865042E+00  0.660673900196E+00
  0.702998097735E+00  0.743396073735E+00  0.781691755158E+00  0.817716506082E+00  0.851295262156E+00
  0.882238303138E+00  0.910345746539E+00  0.935421494478E+00  0.957287301571E+00  0.975791215624E+00
  0.990810703323E+00  0.100225314176E+01  0.101005569110E+01  0.101418535318E+01  0.101463927790E+01
  0.101144510801E+01  0.100466111497E+01  0.994375950448E+00  0.980707901591E+00  0.963803639329E+00
  0.943836461172E+00  0.921004116597E+00  0.895526241359E+00  0.867641520215E+00  0.837604615000E+00
  0.805682938619E+00  0.772153342384E+00  0.737298744582E+00  0.701404760904E+00  0.664756390336E+00
  0.627634741711E+00  0.590313873286E+00  0.553057756365E+00  0.516117401327E+00  0.479728188657E+00
  0.444107456577E+00  0.409452404308E+00  0.375938372688E+00  0.343717559055E+00  0.312918210115E+00
  0.283644316716E+00  0.255975805584E+00  0.229969207138E+00  0.205658740221E+00  0.183057753088E+00
  0.162160440109E+00
 pseudo wavefunction
  0.815477257113E-04  0.841994543121E-04  0.869374105116E-04  0.897643982160E-04  0.926833125078E-04
  0.956971426101E-04  0.988089749485E-04  0.102021996311E-03  0.105339497112E-03  0.108764874763E-03
  0.112301637149E-03  0.115953406224E-03  0.119723921719E-03  0.123617044970E-03  0.127636762877E-03
  0.131787191981E-03  0.136072582684E-03  0.140497323602E-03  0.145065946054E-03  0.149783128710E-03
  0.154653702376E-03  0.159682654946E-03  0.164875136506E-03  0.170236464611E-03  0.175772129729E-03
  0.181487800864E-03  0.187389331363E-03  0.193482764908E-03  0.199774341708E-03  0.206270504887E-03
  0.212977907082E-03  0.219903417260E-03  0.227054127747E-03  0.234437361494E-03  0.242060679579E-03
  0.249931888944E-03  0.258059050395E-03  0.266450486854E-03  0.275114791884E-03  0.284060838489E-03
  0.293297788203E-03  0.302835100467E-03  0.312682542321E-03  0.322850198405E-03  0.333348481284E-03
  0.344188142117E-03  0.355380281661E-03  0.366936361642E-03  0.378868216494E-03  0.391188065475E-03
  0.403908525185E-03  0.417042622483E-03  0.430603807827E-03  0.444605969054E-03  0.459063445594E-03
  0.473991043162E-03  0.489404048917E-03  0.505318247117E-03  0.521749935286E-03  0.538715940900E-03
  0.556233638623E-03  0.574320968101E-03  0.592996452329E-03  0.612279216623E-03  0.632189008208E-03
  0.652746216436E-03  0.673971893671E-03  0.695887776845E-03  0.718516309720E-03  0.741880665872E-03
  0.766004772421E-03  0.790913334538E-03  0.816631860740E-03  0.843186689018E-03  0.870605013804E-03
  0.898914913826E-03  0.928145380856E-03  0.958326349405E-03  0.989488727376E-03  0.102166442772E-02
  0.105488640110E-02  0.108918866967E-02  0.112460636188E-02  0.116117574846E-02  0.119893427959E-02
  0.123792062320E-02  0.127817470463E-02  0.131973774745E-02  0.136265231574E-02  0.140696235763E-02
  0.145271325033E-02  0.149995184660E-02  0.154872652270E-02  0.159908722798E-02  0.165108553598E-02
  0.170477469728E-02  0.176020969402E-02  0.181744729618E-02  0.187654611977E-02  0.193756668679E-02
  0.200057148727E-02  0.206562504320E-02  0.213279397464E-02  0.220214706796E-02  0.227375534621E-02
  0.234769214192E-02  0.242403317215E-02  0.250285661605E-02  0.258424319488E-02  0.266827625473E-02
  0.275504185178E-02  0.284462884051E-02  0.293712896461E-02  0.303263695098E-02  0.313125060667E-02
  0.323307091910E-02  0.333820215938E-02  0.344675198915E-02  0.355883157079E-02  0.367455568123E-02
  0.379404282948E-02  0.391741537797E-02  0.404479966782E-02  0.417632614823E-02  0.431212951000E-02
  0.445234882345E-02  0.459712768080E-02  0.474661434319E-02  0.490096189243E-02  0.506032838775E-02
  0.522487702760E-02  0.539477631671E-02  0.557020023861E-02  0.575132843370E-02  0.593834638314E-02
  0.613144559871E-02  0.633082381885E-02  0.653668521102E-02  0.674924058070E-02  0.696870758709E-02
  0.719531096592E-02  0.742928275939E-02  0.767086255365E-02  0.792029772395E-02  0.817784368774E-02
  0.844376416603E-02  0.871833145320E-02  0.900182669552E-02  0.929454017879E-02  0.959677162528E-02
  0.990883050022E-02  0.102310363284E-01  0.105637190207E-01  0.109072192118E-01  0.112618886081E-01
  0.116280903475E-01  0.120061993704E-01  0.123966028031E-01  0.127997003533E-01  0.132159047187E-01
  0.136456420083E-01  0.140893521779E-01  0.145474894794E-01  0.150205229247E-01  0.155089367643E-01
  0.160132309818E-01  0.165339218041E-01  0.170715422280E-01  0.176266425639E-01  0.181997909971E-01
  0.187915741665E-01  0.194025977634E-01  0.200334871477E-01  0.206848879853E-01  0.213574669051E-01
  0.220519121780E-01  0.227689344162E-01  0.235092672965E-01  0.242736683058E-01  0.250629195101E-01
  0.258778283492E-01  0.267192284556E-01  0.275879804997E-01  0.284849730625E-01  0.294111235351E-01
  0.303673790471E-01  0.313547174243E-01  0.323741481766E-01  0.334267135170E-01  0.345134894124E-01
  0.356355866676E-01  0.367941520430E-01  0.379903694070E-01  0.392254609246E-01  0.405006882824E-01
  0.418173539515E-01  0.431768024894E-01  0.445804218815E-01  0.460296449237E-01  0.475259506471E-01
  0.490708657851E-01  0.506659662856E-01  0.523128788672E-01  0.540132826228E-01  0.557689106695E-01
  0.575815518475E-01  0.594530524680E-01  0.613853181118E-01  0.633803154786E-01  0.654400742896E-01
  0.675666892425E-01  0.697623220209E-01  0.720292033587E-01  0.743696351597E-01  0.767859926737E-01
  0.792807267296E-01  0.818563660248E-01  0.845155194735E-01  0.872608786111E-01  0.900952200573E-01
  0.930214080363E-01  0.960423969533E-01  0.991612340281E-01  0.102381061984E+00  0.105705121788E+00
  0.109136755450E+00  0.112679408862E+00  0.116336634695E+00  0.120112095333E+00  0.124009565855E+00
  0.128032937043E+00  0.132186218436E+00  0.136473541398E+00  0.140899162210E+00  0.145467465175E+00
  0.150182965720E+00  0.155050313498E+00  0.160074295467E+00  0.165259838936E+00  0.170612014565E+00
  0.176136039306E+00  0.181837279254E+00  0.187721252402E+00  0.193793631261E+00  0.200060245332E+00
  0.206527083389E+00  0.213200295545E+00  0.220086195059E+00  0.227191259846E+00  0.234522133635E+00
  0.242085626730E+00  0.249888716306E+00  0.257938546178E+00  0.266242425963E+00  0.274807829557E+00
  0.283642392830E+00  0.292753910429E+00  0.302150331579E+00  0.311839754749E+00  0.321830421030E+00
  0.332130706074E+00  0.342749110390E+00  0.353694247819E+00  0.364974831931E+00  0.376599660114E+00
  0.388577595046E+00  0.400917543253E+00  0.413628430375E+00  0.426719172761E+00  0.440198644933E+00
  0.454075642432E+00  0.468358839485E+00  0.483056740881E+00  0.498177627359E+00  0.513729493745E+00
  0.529719978972E+00  0.546156287045E+00  0.563045097863E+00  0.580392466756E+00  0.598203711387E+00
  0.616483284604E+00  0.635234631621E+00  0.654460029761E+00  0.674160408817E+00  0.694335149890E+00
  0.714981860357E+00  0.736096122431E+00  0.757671212527E+00  0.779697788452E+00  0.802163541211E+00
  0.825052808008E+00  0.848346142836E+00  0.872019840898E+00  0.896045412985E+00  0.920389005890E+00
  0.945010765014E+00  0.969864135460E+00  0.994895098271E+00  0.102004133900E+01  0.104523134664E+01
  0.107038344193E+01  0.109540473587E+01  0.112019002089E+01  0.114462060011E+01  0.116856306300E+01
  0.119186802024E+01  0.121436881520E+01  0.123588023556E+01  0.125619725611E+01  0.127509385139E+01
  0.129232192750E+01  0.130761043238E+01  0.132066471690E+01  0.133116623170E+01  0.133877265895E+01
  0.134311859223E+01  0.134381689101E+01  0.134046084846E+01  0.133262731962E+01  0.131988096144E+01
  0.130177973302E+01  0.127788310298E+01  0.124791979347E+01  0.121195594119E+01  0.117012955700E+01
  0.000000000000E+00  0.000000000000E+00  0.000000000000E+00  0.000000000000E+00  0.000000000000E+00
  0.000000000000E+00  0.000000000000E+00  0.000000000000E+00  0.000000000000E+00  0.000000000000E+00
  0.000000000000E+00  0.000000000000E+00  0.000000000000E+00  0.000000000000E+00  0.000000000000E+00
  0.000000000000E+00  0.000000000000E+00  0.000000000000E+00  0.000000000000E+00  0.000000000000E+00
  0.000000000000E+00  0.000000000000E+00  0.000000000000E+00  0.000000000000E+00  0.000000000000E+00
  0.000000000000E+00
 ae wavefunction
  0.100411206031E-02  0.103655653257E-02  0.107004824907E-02  0.110462094206E-02  0.114030942574E-02
  0.117714963085E-02  0.121517864012E-02  0.125443472469E-02  0.129495738219E-02  0.133678737526E-02
  0.137996677192E-02  0.142453898676E-02  0.147054882368E-02  0.151804251972E-02  0.156706779045E-02
  0.161767387661E-02  0.166991159220E-02  0.172383337419E-02  0.177949333353E-02  0.183694730789E-02
  0.189625291594E-02  0.195746961331E-02  0.202065875021E-02  0.208588363083E-02  0.215320957455E-02
  0.222270397899E-02  0.229443638492E-02  0.236847854317E-02  0.244490448353E-02  0.252379058570E-02
  0.260521565239E-02  0.268926098453E-02  0.277601045878E-02  0.286555060725E-02  0.295797069967E-02
  0.305336282787E-02  0.315182199281E-02  0.325344619405E-02  0.335833652195E-02  0.346659725239E-02
  0.357833594433E-02  0.369366354008E-02  0.381269446850E-02  0.393554675108E-02  0.406234211102E-02
  0.419320608539E-02  0.432826814042E-02  0.446766179001E-02  0.461152471742E-02  0.475999890040E-02
  0.491323073976E-02  0.507137119125E-02  0.523457590114E-02  0.540300534538E-02  0.557682497239E-02
  0.575620534963E-02  0.594132231403E-02  0.613235712617E-02  0.632949662853E-02  0.653293340765E-02
  0.674286596037E-02  0.695949886420E-02  0.718304295172E-02  0.741371548940E-02  0.765174036045E-02
  0.789734825209E-02  0.815077684708E-02  0.841227101959E-02  0.868208303549E-02  0.896047275693E-02
  0.924770785137E-02  0.954406400502E-02  0.984982514059E-02  0.101652836394E-01  0.104907405678E-01
  0.108265059081E-01  0.111728987934E-01  0.115302477462E-01  0.118988909230E-01  0.122791763595E-01
  0.126714622234E-01  0.130761170679E-01  0.134935200904E-01  0.139240613943E-01  0.143681422534E-01
  0.148261753797E-01  0.152985851939E-01  0.157858080982E-01  0.162882927509E-01  0.168065003429E-01
  0.173409048755E-01  0.178919934394E-01  0.184602664931E-01  0.190462381422E-01  0.196504364175E-01
  0.202734035517E-01  0.209156962543E-01  0.215778859835E-01  0.222605592145E-01  0.229643177037E-01
  0.236897787473E-01  0.244375754327E-01  0.252083568839E-01  0.260027884966E-01  0.268215521644E-01
  0.276653464924E-01  0.285348869993E-01  0.294309063035E-01  0.303541542937E-01  0.313053982813E-01
  0.322854231324E-01  0.332950313775E-01  0.343350432971E-01  0.354062969793E-01  0.365096483489E-01
  0.376459711628E-01  0.388161569716E-01  0.400211150407E-01  0.412617722306E-01  0.425390728318E-01
  0.438539783489E-01  0.452074672324E-01  0.466005345522E-01  0.480341916085E-01  0.495094654752E-01
  0.510273984710E-01  0.525890475524E-01  0.541954836221E-01  0.558477907490E-01  0.575470652892E-01
  0.592944149057E-01  0.610909574763E-01  0.629378198839E-01  0.648361366790E-01  0.667870486093E-01
  0.687917010039E-01  0.708512420048E-01  0.729668206361E-01  0.751395846992E-01  0.773706784836E-01
  0.796612402836E-01  0.820123997070E-01  0.844252747640E-01  0.869009687250E-01  0.894405667320E-01
  0.920451321506E-01  0.947157026489E-01  0.974532859865E-01  0.100258855501E+00  0.103133345273E+00
  0.106077644955E+00  0.109092594252E+00  0.112178977021E+00  0.115337514994E+00  0.118568861090E+00
  0.121873592304E+00  0.125252202151E+00  0.128705092655E+00  0.132232565851E+00  0.135834814797E+00
  0.139511914062E+00  0.143263809684E+00  0.147090308573E+00  0.150991067341E+00  0.154965580557E+00
  0.159013168383E+00  0.163132963604E+00  0.167323898026E+00  0.171584688232E+00  0.175913820679E+00
  0.180309536147E+00  0.184769813516E+00  0.189292352876E+00  0.193874557970E+00  0.198513517983E+00
  0.203205988665E+00  0.207948372826E+00  0.212736700201E+00  0.217566606727E+00  0.222433313240E+00
  0.227331603655E+00  0.232255802656E+00  0.237199752953E+00  0.242156792174E+00  0.247119729454E+00
  0.252080821818E+00  0.257031750433E+00  0.261963596859E+00  0.266866819394E+00  0.271731229666E+00
  0.276545969613E+00  0.281299489013E+00  0.285979523755E+00  0.290573075042E+00  0.295066389746E+00
  0.299444942160E+00  0.303693417394E+00  0.307795696707E+00  0.311734845064E+00  0.315493101250E+00
  0.319051870893E+00  0.322391722743E+00  0.325492388640E+00  0.328332767535E+00  0.330890934065E+00
  0.333144152089E+00  0.335068893704E+00  0.336640864237E+00  0.337835033734E+00  0.338625675483E+00
  0.338986412149E+00  0.338890270056E+00  0.338309742224E+00  0.337216860715E+00  0.335583278886E+00
  0.333380364113E+00  0.330579301540E+00  0.327151209410E+00  0.323067266460E+00  0.318298851881E+00
  0.312817698250E+00  0.306596057794E+00  0.299606882299E+00  0.291824016847E+00  0.283222407513E+00
  0.273778323006E+00  0.263469590136E+00  0.252275842824E+00  0.240178784252E+00  0.227162461529E+00
  0.213213552127E+00  0.198321661083E+00  0.182479627800E+00  0.165683841030E+00  0.147934560383E+00
  0.129236242450E+00  0.109597869328E+00  0.890332769980E-01  0.675614806516E-01  0.452069935885E-01
  0.220001358488E-01 -0.202267179947E-02 -0.268186333727E-01 -0.523383278445E-01 -0.785254890752E-01
 -0.105316819838E+00 -0.132641842628E+00 -0.160422787359E+00 -0.188574512968E+00 -0.217004457521E+00
 -0.245612611158E+00 -0.274291509649E+00 -0.302926253778E+00 -0.331394570066E+00 -0.359566938358E+00
 -0.387306817382E+00 -0.414470996398E+00 -0.440910088322E+00 -0.466469161094E+00 -0.490988488296E+00
 -0.514304394485E+00 -0.536250175925E+00 -0.556657087061E+00 -0.575355390912E+00 -0.592175474576E+00
 -0.606949029250E+00 -0.619510290028E+00 -0.629697327922E+00 -0.637353382408E+00 -0.642328222232E+00
 -0.644479521263E+00 -0.643674236664E+00 -0.639789976727E+00 -0.632716347271E+00 -0.622356265451E+00
 -0.608627230644E+00 -0.591462542992E+00 -0.570812459931E+00 -0.546645281908E+00 -0.518948357967E+00
 -0.487729002212E+00 -0.453015311567E+00 -0.414856874075E+00 -0.373325356806E+00 -0.328514960967E+00
 -0.280542730002E+00 -0.229548696640E+00 -0.175695853364E+00 -0.119169931471E+00 -0.601789761144E-01
  0.104729211497E-02  0.642583319031E-01  0.129183846977E+00  0.195535047578E+00  0.263006083041E+00
  0.331275614340E+00  0.400008497553E+00  0.468857563600E+00  0.537465511386E+00  0.605466987922E+00
  0.672491005793E+00  0.738163955532E+00  0.802113577363E+00  0.863974274314E+00  0.923393832698E+00
  0.980040530008E+00  0.103360754150E+01  0.108380973017E+01  0.113036987200E+01  0.117299954389E+01
  0.121138806437E+01  0.124520914300E+01  0.127414049534E+01  0.129788344230E+01  0.131617463165E+01
  0.132879041294E+01  0.133554760128E+01  0.133630339312E+01  0.133095550857E+01  0.131944261315E+01
  0.130174470424E+01  0.127788310298E+01  0.124791979347E+01  0.121195594119E+01  0.117012955700E+01
  0.000000000000E+00  0.000000000000E+00  0.000000000000E+00  0.000000000000E+00  0.000000000000E+00
  0.000000000000E+00  0.000000000000E+00  0.000000000000E+00  0.000000000000E+00  0.000000000000E+00
  0.000000000000E+00  0.000000000000E+00  0.000000000000E+00  0.000000000000E+00  0.000000000000E+00
  0.000000000000E+00  0.000000000000E+00  0.000000000000E+00  0.000000000000E+00  0.000000000000E+00
  0.000000000000E+00  0.000000000000E+00  0.000000000000E+00  0.000000000000E+00  0.000000000000E+00
  0.000000000000E+00
 pseudo wavefunction
  0.291401325933E-08  0.310660738532E-08  0.331193051905E-08  0.353082395115E-08  0.376418457520E-08
  0.401296856259E-08  0.427819528042E-08  0.456095146815E-08  0.486239569049E-08  0.518376308447E-08
  0.552637042028E-08  0.589162149659E-08  0.628101289253E-08  0.669614009969E-08  0.713870405956E-08
  0.761051813289E-08  0.811351552983E-08  0.864975723099E-08  0.922144043214E-08  0.983090754699E-08
  0.104806558050E-07  0.111733474834E-07  0.119118208158E-07  0.126991016216E-07  0.135384157035E-07
  0.144332020655E-07  0.153871270036E-07  0.164040991280E-07  0.174882853783E-07  0.186441280971E-07
  0.198763632322E-07  0.211900397413E-07  0.225905402799E-07  0.240836032562E-07  0.256753463434E-07
  0.273722915463E-07  0.291813919246E-07  0.311100600826E-07  0.331661985409E-07  0.353582321169E-07
  0.376951424442E-07  0.401865047739E-07  0.428425272086E-07  0.456740925285E-07  0.486928027827E-07
  0.519110268276E-07  0.553419510066E-07  0.589996331800E-07  0.628990603257E-07  0.670562099465E-07
  0.714881155364E-07  0.762129363737E-07  0.812500319263E-07  0.866200411755E-07  0.923449671818E-07
  0.984482672403E-07  0.104954948994E-06  0.111891672901E-06  0.119286861471E-06  0.127170815725E-06
  0.135575839351E-06  0.144536371063E-06  0.154089125712E-06  0.164273244717E-06  0.175130456449E-06
  0.186705247203E-06  0.199045043477E-06  0.212200406300E-06  0.226225238396E-06  0.241177005044E-06
  0.257116969541E-06  0.274110444214E-06  0.292227058035E-06  0.311541041917E-06  0.332131532864E-06
  0.354082898227E-06  0.377485081388E-06  0.402433970297E-06  0.429031790352E-06  0.457387523265E-06
  0.487617353594E-06  0.519845144797E-06  0.554202946748E-06  0.590831536791E-06  0.629880996560E-06
  0.671511326916E-06  0.715893103531E-06  0.763208175796E-06  0.813650411926E-06  0.867426493305E-06
  0.924756761334E-06  0.985876120248E-06  0.105103499960E-05  0.112050038036E-05  0.119455688881E-05
  0.127350796280E-05  0.135767709497E-05  0.144740915825E-05  0.154307181892E-05  0.164505704302E-05
  0.175378270241E-05  0.186969428687E-05  0.199326672943E-05  0.212500635232E-05  0.226545294151E-05
  0.241518195837E-05  0.257480689749E-05  0.274498180033E-05  0.292640393503E-05  0.311981665323E-05
  0.332601243583E-05  0.354583613993E-05  0.378018846037E-05  0.403002962015E-05  0.429638330457E-05
  0.458034085547E-05  0.488306574269E-05  0.520579833094E-05  0.554986096174E-05  0.591666337125E-05
  0.630770846606E-05  0.672459848077E-05  0.716904154238E-05  0.764285866862E-05  0.814799122864E-05
  0.868650889678E-05  0.926061813200E-05  0.987267121753E-05  0.105251758980E-04  0.112208056533E-04
  0.119624106514E-04  0.127530294250E-04  0.135959013195E-04  0.144944797639E-04  0.154524464180E-04
  0.164737262553E-04  0.175625036414E-04  0.187232394758E-04  0.199606894654E-04  0.212799236061E-04
  0.226863469507E-04  0.241857217502E-04  0.257841910562E-04  0.274883038842E-04  0.293050420377E-04
  0.312418487062E-04  0.333066589503E-04  0.355079322021E-04  0.378546869117E-04  0.403565374822E-04
  0.430237336441E-04  0.458672024310E-04  0.488985929263E-04  0.521303239658E-04  0.555756349902E-04
  0.592486402555E-04  0.631643866225E-04  0.673389151628E-04  0.717893268303E-04  0.765338524702E-04
  0.815919274473E-04  0.869842712009E-04  0.927329720510E-04  0.988615775995E-04  0.105395191097E-03
  0.112360574171E-03  0.119786256323E-03  0.127702651659E-03  0.136142183310E-03  0.145139416064E-03
  0.154731197738E-03  0.164956809872E-03  0.175858128359E-03  0.187479794654E-03  0.199869398273E-03
  0.213077671305E-03  0.227158695740E-03  0.242170124453E-03  0.258173416722E-03  0.275234089266E-03
  0.293421983779E-03  0.312811552079E-03  0.333482159993E-03  0.355518411228E-03  0.379010492513E-03
  0.404054541419E-03  0.430753038322E-03  0.459215224092E-03  0.489557545183E-03  0.521904127897E-03
  0.556387283727E-03  0.593148047805E-03  0.632336752571E-03  0.674113638984E-03  0.718649507668E-03
  0.766126412590E-03  0.816738400009E-03  0.870692295607E-03  0.928208542896E-03  0.989522096188E-03
  0.105488337163E-02  0.112455925999E-02  0.119883420516E-02  0.127801135246E-02  0.136241377136E-02
  0.145238575706E-02  0.154829421610E-02  0.165053014116E-02  0.175951018072E-02  0.187567830934E-02
  0.199950760496E-02  0.213150213972E-02  0.227219899132E-02  0.242217038221E-02  0.258202595451E-02
  0.275241518875E-02  0.293402997498E-02  0.312760734560E-02  0.333393237906E-02  0.355384128481E-02
  0.378822467978E-02  0.403803106746E-02  0.430427053110E-02  0.458801865300E-02  0.489042067249E-02
  0.521269589551E-02  0.555614236937E-02  0.592214183672E-02  0.631216498309E-02  0.672777699290E-02
  0.717064342923E-02  0.764253645283E-02  0.814534139630E-02  0.868106370932E-02  0.925183629115E-02
  0.985992722626E-02  0.105077479391E-01  0.111978617832E-01  0.119329930798E-01  0.127160366201E-01
  0.135500676430E-01  0.144383523024E-01  0.153843586304E-01  0.163917680069E-01  0.174644871387E-01
  0.186066605500E-01  0.198226835816E-01  0.211172158919E-01  0.224951954467E-01  0.239618529776E-01
  0.255227268840E-01  0.271836785399E-01  0.289509079627E-01  0.308309697832E-01  0.328307894472E-01
  0.349576795609E-01  0.372193562769E-01  0.396239555947E-01  0.421800494316E-01  0.448966612888E-01
  0.477832813164E-01  0.508498805412E-01  0.541069239936E-01  0.575653824260E-01  0.612367422726E-01
  0.651330134572E-01  0.692667345974E-01  0.736509751040E-01  0.782993336099E-01  0.832259320992E-01
  0.884454050389E-01  0.939728827426E-01  0.998239681194E-01  0.106014705886E+00  0.112561543240E+00
  0.119481280915E+00  0.126791013465E+00  0.134508057562E+00  0.142649867018E+00  0.151233933217E+00
  0.160277669592E+00  0.169798278812E+00  0.179812601329E+00  0.190336944040E+00  0.201386887920E+00
  0.212977073642E+00  0.225120964474E+00  0.237830586025E+00  0.251116242866E+00  0.264986212540E+00
  0.279446418120E+00  0.294500081243E+00  0.310147358389E+00  0.326384964240E+00  0.343205787016E+00
  0.360598501964E+00  0.378547190403E+00  0.397030973061E+00  0.416023667596E+00  0.435493481275E+00
  0.455402750406E+00  0.475707738325E+00  0.496358503092E+00  0.517298844394E+00  0.538466336048E+00
  0.559792445588E+00  0.581202735249E+00  0.602617128756E+00  0.623950215269E+00  0.645111545175E+00
  0.666005852012E+00  0.686533110574E+00  0.706588313742E+00  0.726060820598E+00  0.744833097986E+00
  0.762778649522E+00  0.779758904490E+00  0.795618829863E+00  0.810181039602E+00  0.823238215978E+00
  0.834543739524E+00  0.843795380124E+00  0.850759109567E+00  0.855372161004E+00  0.857616014165E+00
  0.857488659294E+00  0.855004671928E+00  0.850195047582E+00  0.843106865393E+00  0.833802777701E+00
  0.822360362211E+00  0.808871363829E+00  0.793440811751E+00  0.776186049690E+00  0.757235651501E+00
  0.736728220047E+00  0.714811061352E+00  0.691638711026E+00  0.667371314245E+00  0.642172855225E+00
  0.616209261527E+00  0.589646422683E+00  0.562648185013E+00  0.535374398390E+00  0.507979097643E+00
  0.480608903449E+00  0.453401664511E+00  0.426485488588E+00  0.399978037834E+00  0.373986187145E+00
  0.348605971935E+00
 ae wavefunction
 -0.227640005255E-06 -0.241553109009E-06 -0.256238555862E-06 -0.271743807437E-06 -0.288119059293E-06
 -0.305417409476E-06 -0.323695040919E-06 -0.343011420299E-06 -0.363429495424E-06 -0.385015922933E-06
 -0.407841293332E-06 -0.431980383418E-06 -0.457512411824E-06 -0.484521323890E-06 -0.513096081958E-06
 -0.543330981917E-06 -0.575325988290E-06 -0.609187085051E-06 -0.645026656992E-06 -0.682963888178E-06
 -0.723125189070E-06 -0.765644650027E-06 -0.810664522779E-06 -0.858335733716E-06 -0.908818428675E-06
 -0.962282552862E-06 -0.101890846811E-05 -0.107888760881E-05 -0.114242318028E-05 -0.120973090157E-05
 -0.128103979581E-05 -0.135659303138E-05 -0.143664881687E-05 -0.152148135361E-05 -0.161138184934E-05
 -0.170665959719E-05 -0.180764312397E-05 -0.191468141270E-05 -0.202814520350E-05 -0.214842837891E-05
 -0.227594943811E-05 -0.241115306706E-05 -0.255451180887E-05 -0.270652784384E-05 -0.286773488278E-05
 -0.303870018477E-05 -0.322002670283E-05 -0.341235537132E-05 -0.361636753939E-05 -0.383278756495E-05
 -0.406238557063E-05 -0.430598038508E-05 -0.456444267121E-05 -0.483869825746E-05 -0.512973168541E-05
 -0.543858998763E-05 -0.576638670788E-05 -0.611430618730E-05 -0.648360812039E-05 -0.687563241512E-05
 -0.729180435834E-05 -0.773364012362E-05 -0.820275263428E-05 -0.870085779960E-05 -0.922978116481E-05
 -0.979146498304E-05 -0.103879757491E-04 -0.110215122190E-04 -0.116944139499E-04 -0.124091703881E-04
 -0.131684305501E-04 -0.139750133231E-04 -0.148319184326E-04 -0.157423381229E-04 -0.167096695752E-04
 -0.177375281589E-04 -0.188297614847E-04 -0.199904644287E-04 -0.212239950522E-04 -0.225349916140E-04
 -0.239283906270E-04 -0.254094460867E-04 -0.269837499631E-04 -0.286572539548E-04 -0.304362926902E-04
 -0.323276083849E-04 -0.343383770722E-04 -0.364762365488E-04 -0.387493160542E-04 -0.411662678874E-04
 -0.437363010297E-04 -0.464692168819E-04 -0.493754473295E-04 -0.524660951748E-04 -0.557529771750E-04
 -0.592486697906E-04 -0.629665578455E-04 -0.669208862560E-04 -0.711268150389E-04 -0.756004777882E-04
 -0.803590438379E-04 -0.854207843420E-04 -0.908051425042E-04 -0.965328082167E-04 -0.102625797380E-03
 -0.109107536177E-03 -0.116002950618E-03 -0.123338561665E-03 -0.131142586270E-03 -0.139445044700E-03
 -0.148277874493E-03 -0.157675051496E-03 -0.167672718328E-03 -0.178309320794E-03 -0.189625752649E-03
 -0.201665509253E-03 -0.214474850611E-03 -0.228102974334E-03 -0.242602199160E-03 -0.258028159541E-03
 -0.274440012047E-03 -0.291900654171E-03 -0.310476956278E-03 -0.330240007458E-03 -0.351265376027E-03
 -0.373633385506E-03 -0.397429406962E-03 -0.422744168568E-03 -0.449674083345E-03 -0.478321596087E-03
 -0.508795550462E-03 -0.541211577400E-03 -0.575692505860E-03 -0.612368797176E-03 -0.651379004183E-03
 -0.692870256384E-03 -0.736998772502E-03 -0.783930401758E-03 -0.833841195310E-03 -0.886918009300E-03
 -0.943359141058E-03 -0.100337499998E-02 -0.106718881472E-02 -0.113503737838E-02 -0.120717183327E-02
 -0.128385849716E-02 -0.136537973262E-02 -0.145203486135E-02 -0.154414112528E-02 -0.164203469631E-02
 -0.174607173654E-02 -0.185662951080E-02 -0.197410755347E-02 -0.209892889124E-02 -0.223154132379E-02
 -0.237241876400E-02 -0.252206263958E-02 -0.268100335757E-02 -0.284980183333E-02 -0.302905108546E-02
 -0.321937789790E-02 -0.342144455020E-02 -0.363595061718E-02 -0.386363483818E-02 -0.410527705682E-02
 -0.436170023094E-02 -0.463377251275E-02 -0.492240939836E-02 -0.522857594571E-02 -0.555328905920E-02
 -0.589761983893E-02 -0.626269599168E-02 -0.664970430008E-02 -0.705989314585E-02 -0.749457508176E-02
 -0.795512944634E-02 -0.844300501417E-02 -0.895972267341E-02 -0.950687812113E-02 -0.100861445655E-01
 -0.106992754225E-01 -0.113481069932E-01 -0.120345611055E-01 -0.127606477039E-01 -0.135284673660E-01
 -0.143402137256E-01 -0.151981757772E-01 -0.161047400361E-01 -0.170623925242E-01 -0.180737205506E-01
 -0.191414142506E-01 -0.202682678463E-01 -0.214571805872E-01 -0.227111573254E-01 -0.240333086777E-01
 -0.254268507220E-01 -0.268951041730E-01 -0.284414929755E-01 -0.300695422528E-01 -0.317828755418E-01
 -0.335852112415E-01 -0.354803581988E-01 -0.374722103520E-01 -0.395647403441E-01 -0.417619920209E-01
 -0.440680717173E-01 -0.464871382391E-01 -0.490233914373E-01 -0.516810592766E-01 -0.544643832889E-01
 -0.573776023104E-01 -0.604249343909E-01 -0.636105567713E-01 -0.669385838208E-01 -0.704130428314E-01
 -0.740378475674E-01 -0.778167694752E-01 -0.817534064637E-01 -0.858511491736E-01 -0.901131446652E-01
 -0.945422574669E-01 -0.991410279388E-01 -0.103911627924E+00 -0.108855813683E+00 -0.113974876119E+00
 -0.119269588339E+00 -0.124740150612E+00 -0.130386132824E+00 -0.136206414546E+00 -0.142199122910E+00
 -0.148361568461E+00 -0.154690179275E+00 -0.161180433629E+00 -0.167826791604E+00 -0.174622626074E+00
 -0.181560153598E+00 -0.188630365898E+00 -0.195822962666E+00 -0.203126286646E+00 -0.210527262067E+00
 -0.218011337617E+00 -0.225562435281E+00 -0.233162906153E+00 -0.240793494317E+00 -0.248433308678E+00
 -0.256059802119E+00 -0.263648755337E+00 -0.271174261340E+00 -0.278608705431E+00 -0.285922735843E+00
 -0.293085222680E+00 -0.300063207642E+00 -0.306821853310E+00 -0.313324406907E+00 -0.319532197048E+00
 -0.325404681082E+00 -0.330899553728E+00 -0.335972916269E+00 -0.340579493605E+00 -0.344672879916E+00
 -0.348205795435E+00 -0.351130344647E+00 -0.353398274582E+00 -0.354961236968E+00 -0.355771059088E+00
 -0.355780026627E+00 -0.354941178528E+00 -0.353208612936E+00 -0.350537800929E+00 -0.346885905093E+00
 -0.342212099803E+00 -0.336477890709E+00 -0.329647431117E+00 -0.321687833920E+00 -0.312569477680E+00
 -0.302266305867E+00 -0.290756118642E+00 -0.278020856318E+00 -0.264046873976E+00 -0.248825206279E+00
 -0.232351821598E+00 -0.214627864069E+00 -0.195659881552E+00 -0.175460037164E+00 -0.154046301204E+00
 -0.131442619230E+00 -0.107679051851E+00 -0.827918807912E-01 -0.568236757344E-01 -0.298233169267E-01
 -0.184596946076E-02  0.270469925154E-01  0.567881103967E-01  0.873040093439E-01  0.118515601298E+00
  0.150338311437E+00  0.182682317934E+00  0.215452801690E+00  0.248550217585E+00  0.281870625756E+00
  0.315306159094E+00  0.348745757632E+00  0.382076358511E+00  0.415184751019E+00  0.447960169991E+00
  0.480297184335E+00  0.512097402331E+00  0.543267514780E+00  0.573711997895E+00  0.603322786216E+00
  0.631972550728E+00  0.659516794793E+00  0.685802869564E+00  0.710679507526E+00  0.734002706130E+00
  0.755638016764E+00  0.775461068324E+00  0.793357768618E+00  0.809224794004E+00  0.822970440992E+00
  0.834515701559E+00  0.843795380124E+00  0.850759109567E+00  0.855372161004E+00  0.857616014165E+00
  0.857488659294E+00  0.855004671928E+00  0.850195047582E+00  0.843106865393E+00  0.833802777701E+00
  0.822360362211E+00  0.808871363829E+00  0.793440811751E+00  0.776186049690E+00  0.757235651501E+00
  0.736728220047E+00  0.714811061352E+00  0.691638711026E+00  0.667371314245E+00  0.642172855225E+00
  0.616209261527E+00  0.589646422683E+00  0.562648185013E+00  0.535374398390E+00  0.507979097643E+00
  0.480608903449E+00  0.453401664511E+00  0.426485488588E+00  0.399978037834E+00  0.373986187145E+00
  0.348605971935E+00
 pseudo wavefunction
  0.571859011433E-08  0.609654545181E-08  0.649948076408E-08  0.692904703757E-08  0.738700437639E-08
  0.787522921411E-08  0.839572200233E-08  0.895061540728E-08  0.954218304822E-08  0.101728488133E-07
  0.108451967914E-07  0.115619818599E-07  0.123261409726E-07  0.131408051936E-07  0.140093125268E-07
  0.149352215925E-07  0.159223262088E-07  0.169746709363E-07  0.180965676505E-07  0.192926132088E-07
  0.205677082861E-07  0.219270774547E-07  0.233762905912E-07  0.249212856987E-07  0.265683932374E-07
  0.283243620625E-07  0.301963870773E-07  0.321921387136E-07  0.343197943601E-07  0.365880718690E-07
  0.390062652761E-07  0.415842828822E-07  0.443326878514E-07  0.472627414928E-07  0.503864494020E-07
  0.537166106534E-07  0.572668702427E-07  0.610517749960E-07  0.650868331739E-07  0.693885780150E-07
  0.739746354790E-07  0.788637964676E-07  0.840760938177E-07  0.896328843845E-07  0.955569365484E-07
  0.101872523507E-06  0.108605522730E-06  0.115783521992E-06  0.123435932409E-06  0.131594108947E-06
  0.140291478898E-06  0.149563678840E-06  0.159448700661E-06  0.169987047220E-06  0.181221898307E-06
  0.193199287567E-06  0.205968291118E-06  0.219581228634E-06  0.234093877719E-06  0.249565702454E-06
  0.266060097037E-06  0.283644645541E-06  0.302391398829E-06  0.322377169775E-06  0.343683847994E-06
  0.366398735382E-06  0.390614903817E-06  0.416431576518E-06  0.443954534597E-06  0.473296550488E-06
  0.504577850014E-06  0.537926605003E-06  0.573479458457E-06  0.611382084429E-06  0.651789784903E-06
  0.694868126132E-06  0.740793617018E-06  0.789754432343E-06  0.841951183784E-06  0.897597741903E-06
  0.956922112447E-06  0.102016737058E-05  0.108759265684E-05  0.115947423894E-05  0.123610664376E-05
  0.131780386409E-05  0.140490064518E-05  0.149775385636E-05  0.159674395320E-05  0.170227653640E-05
  0.181478401368E-05  0.193472737149E-05  0.206259806386E-05  0.219892002601E-05  0.234425182114E-05
  0.249918892902E-05  0.266436618586E-05  0.284046038547E-05  0.302819305228E-05  0.322833339765E-05
  0.344170147158E-05  0.366917152271E-05  0.391167558034E-05  0.417020727329E-05  0.444582590101E-05
  0.473966077387E-05  0.505291584021E-05  0.538687461930E-05  0.574290546014E-05  0.612246714800E-05
  0.652711488135E-05  0.695850664388E-05  0.741840999759E-05  0.790870932483E-05  0.843141354897E-05
  0.898866436529E-05  0.958274501585E-05  0.102160896442E-04  0.108912932684E-04  0.116111224130E-04
  0.123785264438E-04  0.131966496516E-04  0.140688441343E-04  0.149986835308E-04  0.159899776617E-04
  0.170467881383E-04  0.181734450030E-04  0.193745644683E-04  0.206550678297E-04  0.220202016265E-04
  0.234755591366E-04  0.250271032906E-04  0.266811910997E-04  0.284445996990E-04  0.303245541103E-04
  0.323287568402E-04  0.344654194334E-04  0.367432961109E-04  0.391717196309E-04  0.417606395186E-04
  0.445206628220E-04  0.474630975606E-04  0.505999990437E-04  0.539442192495E-04  0.575094594655E-04
  0.613103264068E-04  0.653623920412E-04  0.696822573653E-04  0.742876203945E-04  0.791973486423E-04
  0.844315563875E-04  0.900116870435E-04  0.959606009681E-04  0.102302669071E-03  0.109063872604E-03
  0.116271909536E-03  0.123956307960E-03  0.132148546974E-03  0.140882185556E-03  0.150192999936E-03
  0.160119130038E-03  0.170701235589E-03  0.181982662526E-03  0.194009620390E-03  0.206831371412E-03
  0.220500432088E-03  0.235072788041E-03  0.250608123054E-03  0.267170063210E-03  0.284826437132E-03
  0.303649553366E-03  0.323716496065E-03  0.345109440149E-03  0.367915987228E-03  0.392229523661E-03
  0.418149602194E-03  0.445782348728E-03  0.475240895864E-03  0.506645844977E-03  0.540125758697E-03
  0.575817685783E-03  0.613867720498E-03  0.654431598766E-03  0.697675333489E-03  0.743775891598E-03
  0.792921915550E-03  0.845314492176E-03  0.901167971957E-03  0.960710842010E-03  0.102418665628E-02
  0.109185502664E-02  0.116399267887E-02  0.124089457767E-02  0.132287512520E-02  0.141026943799E-02
  0.150343470699E-02  0.160275164648E-02  0.170862603724E-02  0.182149037022E-02  0.194180559698E-02
  0.207006299390E-02  0.220678614720E-02  0.235253306661E-02  0.250789843574E-02  0.267351600781E-02
  0.285006115589E-02  0.303825358734E-02  0.323886023271E-02  0.345269831994E-02  0.368063864538E-02
  0.392360905372E-02  0.418259813975E-02  0.445865918532E-02  0.475291434595E-02  0.506655910210E-02
  0.540086699085E-02  0.575719463481E-02  0.613698708574E-02  0.654178350122E-02  0.697322317377E-02
  0.743305193259E-02  0.792312893904E-02  0.844543389789E-02  0.900207470735E-02  0.959529557187E-02
  0.102274856023E-01  0.109011879290E-01  0.116191093550E-01  0.123841305757E-01  0.131993169929E-01
  0.140679301526E-01  0.149934398347E-01  0.159795368236E-01  0.170301463902E-01  0.181494425124E-01
  0.193418628649E-01  0.206121246052E-01  0.219652409824E-01  0.234065387949E-01  0.249416767187E-01
  0.265766645285E-01  0.283178832261E-01  0.301721060910E-01  0.321465206585E-01  0.342487516267E-01
  0.364868846862E-01  0.388694912556E-01  0.414056540969E-01  0.441049937706E-01  0.469776958777E-01
  0.500345390167E-01  0.532869233644E-01  0.567468997676E-01  0.604271992062E-01  0.643412624556E-01
  0.685032697477E-01  0.729281701846E-01  0.776317106202E-01  0.826304636723E-01  0.879418544734E-01
  0.935841857035E-01  0.995766603828E-01  0.105939401817E+00  0.112693470009E+00  0.119860873746E+00
  0.127464577480E+00  0.135528501980E+00  0.144077517640E+00  0.153137429157E+00  0.162734950176E+00
  0.172897666316E+00  0.183653984845E+00  0.195033069077E+00  0.207064755401E+00  0.219779450647E+00
  0.233208007313E+00  0.247381573997E+00  0.262331418175E+00  0.278088718331E+00  0.294684322281E+00
  0.312148468415E+00  0.330510466534E+00  0.349798334922E+00  0.370038390351E+00  0.391254787886E+00
  0.413469007585E+00  0.436699285593E+00  0.460959987670E+00  0.486260923917E+00  0.512606604396E+00
  0.539995436506E+00  0.568418866379E+00  0.597860468269E+00  0.628294987815E+00  0.659687347350E+00
  0.691991623811E+00  0.725150012533E+00  0.759091792928E+00  0.793732314786E+00  0.828972026523E+00
  0.864695568746E+00  0.900770957920E+00  0.937048885087E+00  0.973362153233E+00  0.100952527329E+01
  0.104533423238E+01  0.108056643801E+01  0.111498082794E+01  0.114831811634E+01  0.118030112315E+01
  0.121063510361E+01  0.123900796074E+01  0.126509018530E+01  0.128853432805E+01  0.130897377168E+01
  0.132602054064E+01  0.133926187406E+01  0.134825530053E+01  0.135252200835E+01  0.135153841669E+01
  0.134472604132E+01  0.133144140608E+01  0.131113985918E+01  0.128359157702E+01  0.124863807676E+01
  0.000000000000E+00  0.000000000000E+00  0.000000000000E+00  0.000000000000E+00  0.000000000000E+00
  0.000000000000E+00  0.000000000000E+00  0.000000000000E+00  0.000000000000E+00  0.000000000000E+00
  0.000000000000E+00  0.000000000000E+00  0.000000000000E+00  0.000000000000E+00  0.000000000000E+00
  0.000000000000E+00  0.000000000000E+00  0.000000000000E+00  0.000000000000E+00  0.000000000000E+00
  0.000000000000E+00  0.000000000000E+00  0.000000000000E+00  0.000000000000E+00  0.000000000000E+00
  0.000000000000E+00
 ae wavefunction
 -0.419591673479E-06 -0.445236660954E-06 -0.472305250687E-06 -0.500884925173E-06 -0.531068206171E-06
 -0.562952965377E-06 -0.596642760627E-06 -0.632247202450E-06 -0.669882317876E-06 -0.709670970157E-06
 -0.751743273549E-06 -0.796237058589E-06 -0.843298343123E-06 -0.893081857389E-06 -0.945751579095E-06
 -0.100148131688E-05 -0.106045532797E-05 -0.112286896479E-05 -0.118892937793E-05 -0.125885625057E-05
 -0.133288258579E-05 -0.141125554245E-05 -0.149423732267E-05 -0.158210611794E-05 -0.167515711327E-05
 -0.177370355614E-05 -0.187807789421E-05 -0.198863298444E-05 -0.210574338018E-05 -0.222980670049E-05
 -0.236124508686E-05 -0.250050675369E-05 -0.264806763788E-05 -0.280443315455E-05 -0.297014006557E-05
 -0.314575846823E-05 -0.333189391186E-05 -0.352918965126E-05 -0.373832904445E-05 -0.396003810621E-05
 -0.419508822539E-05 -0.444429905901E-05 -0.470854161112E-05 -0.498874151386E-05 -0.528588251725E-05
 -0.560101020839E-05 -0.593523596640E-05 -0.628974117866E-05 -0.666578172614E-05 -0.706469276477E-05
 -0.748789380520E-05 -0.793689413439E-05 -0.841329858154E-05 -0.891881365848E-05 -0.945525409868E-05
 -0.100245498207E-04 -0.106287533383E-04 -0.112700476609E-04 -0.119507546913E-04 -0.126733441838E-04
 -0.134404432655E-04 -0.142548465883E-04 -0.151195271357E-04 -0.160376477180E-04 -0.170125732291E-04
 -0.180478836822E-04 -0.191473880961E-04 -0.203151392770E-04 -0.215554495594E-04 -0.228729075576E-04
 -0.242723960099E-04 -0.257591107648E-04 -0.273385809967E-04 -0.290166907359E-04 -0.307997017578E-04
 -0.326942780077E-04 -0.347075115045E-04 -0.368469500336E-04 -0.391206264891E-04 -0.415370902338E-04
 -0.441054403792E-04 -0.468353612296E-04 -0.497371600521E-04 -0.528218071755E-04 -0.561009787541E-04
 -0.595871022176E-04 -0.632934046196E-04 -0.672339641473E-04 -0.714237648284E-04 -0.758787548062E-04
 -0.806159083152E-04 -0.856532915520E-04 -0.910101328385E-04 -0.967068971463E-04 -0.102765365426E-03
 -0.109208718933E-03 -0.116061628915E-03 -0.123350351965E-03 -0.131102831408E-03 -0.139348805092E-03
 -0.148119919962E-03 -0.157449853863E-03 -0.167374444991E-03 -0.177931829462E-03 -0.189162587521E-03
 -0.201109898875E-03 -0.213819707747E-03 -0.227340898203E-03 -0.241725480395E-03 -0.257028788379E-03
 -0.273309690165E-03 -0.290630810807E-03 -0.309058769194E-03 -0.328664429493E-03 -0.349523167966E-03
 -0.371715156200E-03 -0.395325661615E-03 -0.420445366275E-03 -0.447170705143E-03 -0.475604224753E-03
 -0.505854963647E-03 -0.538038855679E-03 -0.572279157541E-03 -0.608706901916E-03 -0.647461377632E-03
 -0.688690638341E-03 -0.732552041357E-03 -0.779212818233E-03 -0.828850678842E-03 -0.881654450829E-03
 -0.937824756232E-03 -0.997574727349E-03 -0.106113076385E-02 -0.112873333333E-02 -0.120063781758E-02
 -0.127711540679E-02 -0.135845404425E-02 -0.144495942405E-02 -0.153695604425E-02 -0.163478831840E-02
 -0.173882174815E-02 -0.184944415970E-02 -0.196706700731E-02 -0.209212674663E-02 -0.222508628119E-02
 -0.236643648517E-02 -0.251669780565E-02 -0.267642194774E-02 -0.284619364598E-02 -0.302663252522E-02
 -0.321839505467E-02 -0.342217659827E-02 -0.363871356504E-02 -0.386878566260E-02 -0.411321825733E-02
 -0.437288484423E-02 -0.464870962994E-02 -0.494167023156E-02 -0.525280049427E-02 -0.558319343043E-02
 -0.593400428227E-02 -0.630645371041E-02 -0.670183110977E-02 -0.712149805405E-02 -0.756689186960E-02
 -0.803952933881E-02 -0.854101053252E-02 -0.907302277019E-02 -0.963734470585E-02 -0.102358505368E-01
 -0.108705143308E-01 -0.115434144674E-01 -0.122567381851E-01 -0.130127862287E-01 -0.138139775855E-01
 -0.146628542996E-01 -0.155620863515E-01 -0.165144765871E-01 -0.175229656786E-01 -0.185906370974E-01
 -0.197207220752E-01 -0.209166045292E-01 -0.221818259204E-01 -0.235200900133E-01 -0.249352675010E-01
 -0.264314004551E-01 -0.280127065554E-01 -0.296835830510E-01 -0.314486103986E-01 -0.333125555181E-01
 -0.352803746019E-01 -0.373572154063E-01 -0.395484189494E-01 -0.418595205316E-01 -0.442962499902E-01
 -0.468645310902E-01 -0.495704799483E-01 -0.524204023797E-01 -0.554207900464E-01 -0.585783152843E-01
 -0.618998244709E-01 -0.653923297941E-01 -0.690629992720E-01 -0.729191448635E-01 -0.769682085087E-01
 -0.812177459231E-01 -0.856754079688E-01 -0.903489194169E-01 -0.952460549124E-01 -0.100374611944E+00
 -0.105742380623E+00 -0.111357110073E+00 -0.117226471226E+00 -0.123358015834E+00 -0.129759131487E+00
 -0.136436992474E+00 -0.143398506273E+00 -0.150650255536E+00 -0.158198435396E+00 -0.166048785958E+00
 -0.174206519886E+00 -0.182676244971E+00 -0.191461881646E+00 -0.200566575426E+00 -0.209992604279E+00
 -0.219741281025E+00 -0.229812850838E+00 -0.240206384069E+00 -0.250919664576E+00 -0.261949073908E+00
 -0.273289471686E+00 -0.284934072667E+00 -0.296874321046E+00 -0.309099762684E+00 -0.321597916090E+00
 -0.334354143130E+00 -0.347351520683E+00 -0.360570714663E+00 -0.373989858114E+00 -0.387584435372E+00
 -0.401327174519E+00 -0.415187950525E+00 -0.429133701186E+00 -0.443128357849E+00 -0.457132790725E+00
 -0.471104767691E+00 -0.484998921703E+00 -0.498766719483E+00 -0.512356422012E+00 -0.525713027989E+00
 -0.538778196066E+00 -0.551490150480E+00 -0.563783586393E+00 -0.575589602443E+00 -0.586835694684E+00
 -0.597445844316E+00 -0.607340718942E+00 -0.616437986018E+00 -0.624652715226E+00 -0.631897834510E+00
 -0.638084607775E+00 -0.643123116697E+00 -0.646922744393E+00 -0.649392668142E+00 -0.650442370237E+00
 -0.649982173269E+00 -0.647923800099E+00 -0.644180957099E+00 -0.638669934919E+00 -0.631310221677E+00
 -0.622025123195E+00 -0.610742386067E+00 -0.597394819740E+00 -0.581920915553E+00 -0.564265460645E+00
 -0.544380145344E+00 -0.522224163384E+00 -0.497764803837E+00 -0.470978034224E+00 -0.441849073512E+00
 -0.410372953728E+00 -0.376555068042E+00 -0.340411701856E+00 -0.301970542890E+00 -0.261271164549E+00
 -0.218365474934E+00 -0.173318123362E+00 -0.126206854463E+00 -0.771227997739E-01 -0.261706977118E-01
  0.265309653866E-01  0.808498960908E-01  0.136640013874E+00  0.193741540297E+00  0.251981141124E+00
  0.311172100787E+00  0.371114512072E+00  0.431595477829E+00  0.492389350851E+00  0.553258089799E+00
  0.613951880087E+00  0.674210269543E+00  0.733764172796E+00  0.792339126527E+00  0.849659904580E+00
  0.905455616556E+00  0.959462488428E+00  0.101141974424E+01  0.106105567211E+01  0.110806847980E+01
  0.115211437455E+01  0.119281223958E+01  0.122976095463E+01  0.126255737984E+01  0.129080748835E+01
  0.131413097418E+01  0.133216280306E+01  0.134455435589E+01  0.135097524786E+01  0.135111592592E+01
  0.134469077582E+01  0.133144140608E+01  0.131113985918E+01  0.128359157702E+01  0.124863807676E+01
  0.000000000000E+00  0.000000000000E+00  0.000000000000E+00  0.000000000000E+00  0.000000000000E+00
  0.000000000000E+00  0.000000000000E+00  0.000000000000E+00  0.000000000000E+00  0.000000000000E+00
  0.000000000000E+00  0.000000000000E+00  0.000000000000E+00  0.000000000000E+00  0.000000000000E+00
  0.000000000000E+00  0.000000000000E+00  0.000000000000E+00  0.000000000000E+00  0.000000000000E+00
  0.000000000000E+00  0.000000000000E+00  0.000000000000E+00  0.000000000000E+00  0.000000000000E+00
  0.000000000000E+00
 End of Dataset
  PAW_PBE Ge_d 03Jul2007                 
   14.0000000000000     
 parameters from PSCTR are:
   SHA256 =  944b26c40d2d7c4f4eb1ff3a2e8dbfdd7129146276cd341854bfd5c0e57780ed Ge_d/POTCAR
   COPYR  = (c) Copyright 03Jul2007 Georg Kresse
   COPYR  = This file is part of the software VASP. Any use, copying, and all other rights are regulated by the VASP license agreement.
   COPYR  = If you do not have a valid VASP license, you may not use, copy or distribute this file.
   VRHFIN =Ge: 3d4s4p
   LEXCH  = PE
   EATOM  =  2596.2402 eV,  190.8183 Ry

   TITEL  = PAW_PBE Ge_d 03Jul2007
   LULTRA =        F    use ultrasoft PP ?
   IUNSCR =        1    unscreen: 0-lin 1-nonlin 2-no
   RPACOR =    2.000    partial core radius
   POMASS =   72.610; ZVAL   =   14.000    mass and valenz
   RCORE  =    2.300    outmost cutoff radius
   RWIGS  =    2.300; RWIGS  =    1.217    wigner-seitz radius (au A)
   ENMAX  =  310.294; ENMIN  =  232.720 eV
   ICORE  =        3    local potential
   LCOR   =        T    correct aug charges
   LPAW   =        T    paw PP
   EAUG   =  531.356
   DEXC   =    0.000
   RMAX   =    2.342    core radius for proj-oper
   RAUG   =    1.300    factor for augmentation sphere
   RDEP   =    2.318    radius for radial grids
   RDEPT  =    1.783    core radius for aug-charge
 
   Atomic configuration
    9 entries
     n  l   j            E        occ.
     1  0  0.50    -10959.8463   2.0000
     2  0  0.50     -1371.6056   2.0000
     2  1  1.50     -1198.4791   6.0000
     3  0  0.50      -168.4733   2.0000
     3  1  1.50      -115.6019   6.0000
     3  2  2.50       -29.3106  10.0000
     4  0  0.50       -11.7309   2.0000
     4  1  0.50        -3.8952   2.0000
     4  3  2.50        -4.0817   0.0000
   Description
     l       E           TYP  RCUT    TYP  RCUT
     2    -29.3105938     23  2.200
     2    -13.6058260     23  2.200
     0    -11.7309493     23  2.300
     0     -7.4578696     23  2.300
     1     -3.8952261     23  2.300
     1      6.1178114     23  2.300
     3     -1.3605826     23  2.300
   Error from kinetic energy argument (eV)
   NDATA  =      100
   STEP   =   20.000   1.050
  74.3      72.9      72.2      70.8      70.1      68.8      67.5      66.9
  65.6      64.4      63.8      62.6      61.4      60.1      58.9      57.7
  56.4      55.1      53.8      51.8      50.4      49.0      46.8      45.4
  43.9      41.6      39.2      37.7      35.3      33.0      30.6      28.3
  26.1      23.9      21.7      19.7      17.1      15.3      13.1      11.5
  9.63      7.96      6.49      5.22      4.14      3.23      2.48      1.74
  1.28     0.845     0.537     0.363     0.215     0.123     0.629E-01 0.391E-01
 0.289E-01 0.253E-01 0.250E-01 0.243E-01 0.222E-01 0.188E-01 0.148E-01 0.103E-01
 0.715E-02 0.463E-02 0.327E-02 0.273E-02 0.259E-02 0.255E-02 0.236E-02 0.197E-02
 0.150E-02 0.107E-02 0.735E-03 0.586E-03 0.532E-03 0.520E-03 0.482E-03 0.408E-03
 0.305E-03 0.219E-03 0.171E-03 0.154E-03 0.149E-03 0.135E-03 0.109E-03 0.795E-04
 0.618E-04 0.562E-04 0.538E-04 0.476E-04 0.362E-04 0.278E-04 0.242E-04 0.232E-04
 0.203E-04 0.159E-04 0.124E-04 0.115E-04
END of PSCTR-controll parameters
 local part
   81.2582175088937     
  0.10463595E+03  0.10463083E+03  0.10460682E+03  0.10456683E+03  0.10451091E+03
  0.10443912E+03  0.10435151E+03  0.10424818E+03  0.10412918E+03  0.10399461E+03
  0.10384454E+03  0.10367905E+03  0.10349820E+03  0.10330207E+03  0.10309073E+03
  0.10286425E+03  0.10262269E+03  0.10236613E+03  0.10209464E+03  0.10180830E+03
  0.10150718E+03  0.10119136E+03  0.10086091E+03  0.10051589E+03  0.10015636E+03
  0.99782388E+02  0.99394007E+02  0.98991259E+02  0.98574173E+02  0.98142770E+02
  0.97697066E+02  0.97237065E+02  0.96762770E+02  0.96274173E+02  0.95771263E+02
  0.95254022E+02  0.94722428E+02  0.94176452E+02  0.93616063E+02  0.93041228E+02
  0.92451909E+02  0.91848070E+02  0.91229674E+02  0.90596690E+02  0.89949088E+02
  0.89286846E+02  0.88609949E+02  0.87918393E+02  0.87212184E+02  0.86491342E+02
  0.85755901E+02  0.85005911E+02  0.84241442E+02  0.83462581E+02  0.82669441E+02
  0.81862155E+02  0.81040883E+02  0.80205812E+02  0.79357158E+02  0.78495166E+02
  0.77620114E+02  0.76732310E+02  0.75832097E+02  0.74919850E+02  0.73995981E+02
  0.73060935E+02  0.72115191E+02  0.71159265E+02  0.70193708E+02  0.69219105E+02
  0.68236076E+02  0.67245275E+02  0.66247388E+02  0.65243132E+02  0.64233255E+02
  0.63218535E+02  0.62199773E+02  0.61177798E+02  0.60153460E+02  0.59127630E+02
  0.58101196E+02  0.57075062E+02  0.56050144E+02  0.55027370E+02  0.54007671E+02
  0.52991985E+02  0.51981249E+02  0.50976398E+02  0.49978362E+02  0.48988059E+02
  0.48006397E+02  0.47034268E+02  0.46072544E+02  0.45122075E+02  0.44183687E+02
  0.43258176E+02  0.42346307E+02  0.41448814E+02  0.40566391E+02  0.39699695E+02
  0.38849339E+02  0.38015896E+02  0.37199889E+02  0.36401798E+02  0.35622050E+02
  0.34861025E+02  0.34119048E+02  0.33396394E+02  0.32693284E+02  0.32009888E+02
  0.31346320E+02  0.30702640E+02  0.30078859E+02  0.29474932E+02  0.28890765E+02
  0.28326210E+02  0.27781073E+02  0.27255113E+02  0.26748039E+02  0.26259521E+02
  0.25789183E+02  0.25336612E+02  0.24901359E+02  0.24482938E+02  0.24080834E+02
  0.23694500E+02  0.23323368E+02  0.22966844E+02  0.22624314E+02  0.22295150E+02
  0.21978709E+02  0.21674339E+02  0.21381380E+02  0.21099170E+02  0.20827045E+02
  0.20564345E+02  0.20310415E+02  0.20064607E+02  0.19826287E+02  0.19594833E+02
  0.19369640E+02  0.19150121E+02  0.18935711E+02  0.18725869E+02  0.18520076E+02
  0.18317842E+02  0.18118704E+02  0.17922230E+02  0.17728016E+02  0.17535693E+02
  0.17344920E+02  0.17155391E+02  0.16966834E+02  0.16779007E+02  0.16591702E+02
  0.16404745E+02  0.16217991E+02  0.16031329E+02  0.15844678E+02  0.15657984E+02
  0.15471224E+02  0.15284402E+02  0.15097545E+02  0.14910707E+02  0.14723962E+02
  0.14537406E+02  0.14351152E+02  0.14165333E+02  0.13980094E+02  0.13795593E+02
  0.13612001E+02  0.13429496E+02  0.13248263E+02  0.13068493E+02  0.12890379E+02
  0.12714117E+02  0.12539899E+02  0.12367917E+02  0.12198359E+02  0.12031404E+02
  0.11867226E+02  0.11705991E+02  0.11547852E+02  0.11392954E+02  0.11241426E+02
  0.11093386E+02  0.10948937E+02  0.10808168E+02  0.10671152E+02  0.10537946E+02
  0.10408591E+02  0.10283113E+02  0.10161518E+02  0.10043801E+02  0.99299375E+01
  0.98198881E+01  0.97135989E+01  0.96110010E+01  0.95120117E+01  0.94165353E+01
  0.93244638E+01  0.92356776E+01  0.91500469E+01  0.90674324E+01  0.89876864E+01
  0.89106543E+01  0.88361752E+01  0.87640832E+01  0.86942091E+01  0.86263808E+01
  0.85604251E+01  0.84961686E+01  0.84334387E+01  0.83720650E+01  0.83118801E+01
  0.82527209E+01  0.81944291E+01  0.81368525E+01  0.80798457E+01  0.80232706E+01
  0.79669977E+01  0.79109060E+01  0.78548842E+01  0.77988306E+01  0.77426537E+01
  0.76862728E+01  0.76296177E+01  0.75726288E+01  0.75152576E+01  0.74574664E+01
  0.73992278E+01  0.73405252E+01  0.72813521E+01  0.72217116E+01  0.71616165E+01
  0.71010884E+01  0.70401575E+01  0.69788618E+01  0.69172466E+01  0.68553638E+01
  0.67932715E+01  0.67310326E+01  0.66687150E+01  0.66063899E+01  0.65441320E+01
  0.64820180E+01  0.64201262E+01  0.63585358E+01  0.62973261E+01  0.62365760E+01
  0.61763628E+01  0.61167624E+01  0.60578478E+01  0.59996892E+01  0.59423533E+01
  0.58859025E+01  0.58303948E+01  0.57758834E+01  0.57224161E+01  0.56700355E+01
  0.56187783E+01  0.55686753E+01  0.55197513E+01  0.54720250E+01  0.54255090E+01
  0.53802100E+01  0.53361283E+01  0.52932586E+01  0.52515897E+01  0.52111049E+01
  0.51717824E+01  0.51335951E+01  0.50965113E+01  0.50604951E+01  0.50255065E+01
  0.49915020E+01  0.49584348E+01  0.49262554E+01  0.48949121E+01  0.48643510E+01
  0.48345170E+01  0.48053538E+01  0.47768046E+01  0.47488123E+01  0.47213202E+01
  0.46942721E+01  0.46676129E+01  0.46412888E+01  0.46152479E+01  0.45894400E+01
  0.45638177E+01  0.45383359E+01  0.45129522E+01  0.44876275E+01  0.44623258E+01
  0.44370143E+01  0.44116638E+01  0.43862486E+01  0.43607465E+01  0.43351389E+01
  0.43094110E+01  0.42835513E+01  0.42575519E+01  0.42314084E+01  0.42051194E+01
  0.41786870E+01  0.41521160E+01  0.41254140E+01  0.40985914E+01  0.40716610E+01
  0.40446375E+01  0.40175379E+01  0.39903808E+01  0.39631864E+01  0.39359760E+01
  0.39087721E+01  0.38815978E+01  0.38544768E+01  0.38274332E+01  0.38004912E+01
  0.37736746E+01  0.37470071E+01  0.37205118E+01  0.36942110E+01  0.36681264E+01
  0.36422783E+01  0.36166861E+01  0.35913679E+01  0.35663404E+01  0.35416187E+01
  0.35172166E+01  0.34931462E+01  0.34694178E+01  0.34460403E+01  0.34230208E+01
  0.34003648E+01  0.33780762E+01  0.33561574E+01  0.33346091E+01  0.33134306E+01
  0.32926200E+01  0.32721738E+01  0.32520875E+01  0.32323554E+01  0.32129708E+01
  0.31939259E+01  0.31752123E+01  0.31568208E+01  0.31387415E+01  0.31209643E+01
  0.31034783E+01  0.30862727E+01  0.30693362E+01  0.30526577E+01  0.30362260E+01
  0.30200298E+01  0.30040582E+01  0.29883003E+01  0.29727457E+01  0.29573842E+01
  0.29422059E+01  0.29272016E+01  0.29123621E+01  0.28976792E+01  0.28831447E+01
  0.28687513E+01  0.28544918E+01  0.28403598E+01  0.28263492E+01  0.28124543E+01
  0.27986699E+01  0.27849913E+01  0.27714137E+01  0.27579332E+01  0.27445458E+01
  0.27312478E+01  0.27180359E+01  0.27049066E+01  0.26918570E+01  0.26788839E+01
  0.26659842E+01  0.26531551E+01  0.26403935E+01  0.26276964E+01  0.26150607E+01
  0.26024831E+01  0.25899604E+01  0.25774892E+01  0.25650661E+01  0.25526874E+01
  0.25403496E+01  0.25280489E+01  0.25157816E+01  0.25035438E+01  0.24913317E+01
  0.24791415E+01  0.24669694E+01  0.24548117E+01  0.24426649E+01  0.24305256E+01
  0.24183907E+01  0.24062572E+01  0.23941225E+01  0.23819844E+01  0.23698411E+01
  0.23576911E+01  0.23455336E+01  0.23333680E+01  0.23211945E+01  0.23090138E+01
  0.22968271E+01  0.22846364E+01  0.22724442E+01  0.22602536E+01  0.22480685E+01
  0.22358933E+01  0.22237332E+01  0.22115940E+01  0.21994819E+01  0.21874038E+01
  0.21753672E+01  0.21633801E+01  0.21514507E+01  0.21395878E+01  0.21278005E+01
  0.21160981E+01  0.21044902E+01  0.20929865E+01  0.20815967E+01  0.20703306E+01
  0.20591977E+01  0.20482075E+01  0.20373692E+01  0.20266915E+01  0.20161828E+01
  0.20058511E+01  0.19957036E+01  0.19857469E+01  0.19759870E+01  0.19664290E+01
  0.19570771E+01  0.19479347E+01  0.19390043E+01  0.19302872E+01  0.19217840E+01
  0.19134940E+01  0.19054155E+01  0.18975457E+01  0.18898808E+01  0.18824159E+01
  0.18751449E+01  0.18680610E+01  0.18611561E+01  0.18544214E+01  0.18478470E+01
  0.18414224E+01  0.18351361E+01  0.18289761E+01  0.18229297E+01  0.18169836E+01
  0.18111241E+01  0.18053372E+01  0.17996087E+01  0.17939240E+01  0.17882688E+01
  0.17826286E+01  0.17769891E+01  0.17713364E+01  0.17656569E+01  0.17599374E+01
  0.17541654E+01  0.17483290E+01  0.17424169E+01  0.17364188E+01  0.17303254E+01
  0.17241280E+01  0.17178194E+01  0.17113933E+01  0.17048443E+01  0.16981687E+01
  0.16913636E+01  0.16844275E+01  0.16773601E+01  0.16701625E+01  0.16628368E+01
  0.16553865E+01  0.16478161E+01  0.16401315E+01  0.16323396E+01  0.16244483E+01
  0.16164666E+01  0.16084044E+01  0.16002724E+01  0.15920822E+01  0.15838460E+01
  0.15755765E+01  0.15672871E+01  0.15589913E+01  0.15507033E+01  0.15424370E+01
  0.15342066E+01  0.15260264E+01  0.15179104E+01  0.15098722E+01  0.15019253E+01
  0.14940828E+01  0.14863569E+01  0.14787595E+01  0.14713016E+01  0.14639935E+01
  0.14568445E+01  0.14498630E+01  0.14430564E+01  0.14364310E+01  0.14299921E+01
  0.14237438E+01  0.14176889E+01  0.14118293E+01  0.14061656E+01  0.14006971E+01
  0.13954221E+01  0.13903377E+01  0.13854398E+01  0.13807232E+01  0.13761819E+01
  0.13718085E+01  0.13675951E+01  0.13635327E+01  0.13596115E+01  0.13558210E+01
  0.13521502E+01  0.13485875E+01  0.13451206E+01  0.13417373E+01  0.13384247E+01
  0.13351701E+01  0.13319603E+01  0.13287824E+01  0.13256236E+01  0.13224713E+01
  0.13193131E+01  0.13161369E+01  0.13129314E+01  0.13096856E+01  0.13063890E+01
  0.13030321E+01  0.12996060E+01  0.12961025E+01  0.12925143E+01  0.12888351E+01
  0.12850594E+01  0.12811826E+01  0.12772014E+01  0.12731130E+01  0.12689159E+01
  0.12646095E+01  0.12601942E+01  0.12556714E+01  0.12510433E+01  0.12463131E+01
  0.12414847E+01  0.12365630E+01  0.12315536E+01  0.12264629E+01  0.12212976E+01
  0.12160654E+01  0.12107743E+01  0.12054328E+01  0.12000499E+01  0.11946346E+01
  0.11891965E+01  0.11837451E+01  0.11782901E+01  0.11728411E+01  0.11674078E+01
  0.11619997E+01  0.11566259E+01  0.11512955E+01  0.11460172E+01  0.11407992E+01
  0.11356493E+01  0.11305750E+01  0.11255829E+01  0.11206793E+01  0.11158699E+01
  0.11111595E+01  0.11065525E+01  0.11020524E+01  0.10976622E+01  0.10933840E+01
  0.10892193E+01  0.10851689E+01  0.10812328E+01  0.10774106E+01  0.10737008E+01
  0.10701016E+01  0.10666104E+01  0.10632243E+01  0.10599396E+01  0.10567521E+01
  0.10536572E+01  0.10506499E+01  0.10477249E+01  0.10448763E+01  0.10420983E+01
  0.10393845E+01  0.10367287E+01  0.10341243E+01  0.10315647E+01  0.10290434E+01
  0.10265537E+01  0.10240892E+01  0.10216435E+01  0.10192104E+01  0.10167837E+01
  0.10143578E+01  0.10119270E+01  0.10094861E+01  0.10070303E+01  0.10045550E+01
  0.10020560E+01  0.99952952E+00  0.99697221E+00  0.99438111E+00  0.99175368E+00
  0.98908780E+00  0.98638179E+00  0.98363437E+00  0.98084470E+00  0.97801234E+00
  0.97513724E+00  0.97221974E+00  0.96926054E+00  0.96626070E+00  0.96322157E+00
  0.96014484E+00  0.95703245E+00  0.95388660E+00  0.95070971E+00  0.94750440E+00
  0.94427345E+00  0.94101981E+00  0.93774653E+00  0.93445676E+00  0.93115371E+00
  0.92784063E+00  0.92452080E+00  0.92119749E+00  0.91787392E+00  0.91455329E+00
  0.91123868E+00  0.90793314E+00  0.90463956E+00  0.90136076E+00  0.89809939E+00
  0.89485799E+00  0.89163893E+00  0.88844444E+00  0.88527659E+00  0.88213726E+00
  0.87902819E+00  0.87595092E+00  0.87290685E+00  0.86989717E+00  0.86692294E+00
  0.86398504E+00  0.86108420E+00  0.85822099E+00  0.85539584E+00  0.85260904E+00
  0.84986078E+00  0.84715108E+00  0.84447988E+00  0.84184700E+00  0.83925216E+00
  0.83669500E+00  0.83417504E+00  0.83169175E+00  0.82924453E+00  0.82683269E+00
  0.82445551E+00  0.82211220E+00  0.81980194E+00  0.81752384E+00  0.81527700E+00
  0.81306046E+00  0.81087324E+00  0.80871430E+00  0.80658259E+00  0.80447702E+00
  0.80239646E+00  0.80033977E+00  0.79830575E+00  0.79629319E+00  0.79430086E+00
  0.79232747E+00  0.79037174E+00  0.78843233E+00  0.78650787E+00  0.78459698E+00
  0.78269823E+00  0.78081018E+00  0.77893134E+00  0.77706021E+00  0.77519527E+00
  0.77333498E+00  0.77147778E+00  0.76962213E+00  0.76776645E+00  0.76590920E+00
  0.76404884E+00  0.76218382E+00  0.76031266E+00  0.75843389E+00  0.75654606E+00
  0.75464781E+00  0.75273781E+00  0.75081482E+00  0.74887766E+00  0.74692527E+00
  0.74495666E+00  0.74297098E+00  0.74096747E+00  0.73894554E+00  0.73690468E+00
  0.73484458E+00  0.73276503E+00  0.73066600E+00  0.72854763E+00  0.72641021E+00
  0.72425420E+00  0.72208024E+00  0.71988915E+00  0.71768191E+00  0.71545967E+00
  0.71322377E+00  0.71097568E+00  0.70871706E+00  0.70644968E+00  0.70417548E+00
  0.70189652E+00  0.69961497E+00  0.69733311E+00  0.69505332E+00  0.69277803E+00
  0.69050978E+00  0.68825110E+00  0.68600460E+00  0.68377286E+00  0.68155847E+00
  0.67936398E+00  0.67719190E+00  0.67504466E+00  0.67292461E+00  0.67083400E+00
  0.66877494E+00  0.66674941E+00  0.66475923E+00  0.66280605E+00  0.66089134E+00
  0.65901635E+00  0.65718213E+00  0.65538949E+00  0.65363903E+00  0.65193109E+00
  0.65026575E+00  0.64864285E+00  0.64706198E+00  0.64552247E+00  0.64402340E+00
  0.64256361E+00  0.64114169E+00  0.63975599E+00  0.63840466E+00  0.63708562E+00
  0.63579659E+00  0.63453512E+00  0.63329857E+00  0.63208417E+00  0.63088900E+00
  0.62971005E+00  0.62854421E+00  0.62738831E+00  0.62623913E+00  0.62509344E+00
  0.62394804E+00  0.62279971E+00  0.62164534E+00  0.62048184E+00  0.61930627E+00
  0.61811579E+00  0.61690769E+00  0.61567945E+00  0.61442873E+00  0.61315338E+00
  0.61185148E+00  0.61052135E+00  0.60916156E+00  0.60777094E+00  0.60634857E+00
  0.60489383E+00  0.60340638E+00  0.60188615E+00  0.60033335E+00  0.59874849E+00
  0.59713235E+00  0.59548598E+00  0.59381070E+00  0.59210808E+00  0.59037994E+00
  0.58862834E+00  0.58685553E+00  0.58506398E+00  0.58325631E+00  0.58143531E+00
  0.57960391E+00  0.57776512E+00  0.57592208E+00  0.57407796E+00  0.57223597E+00
  0.57039935E+00  0.56857132E+00  0.56675507E+00  0.56495372E+00  0.56317032E+00
  0.56140779E+00  0.55966894E+00  0.55795643E+00  0.55627271E+00  0.55462008E+00
  0.55300062E+00  0.55141617E+00  0.54986835E+00  0.54835853E+00  0.54688782E+00
  0.54545707E+00  0.54406686E+00  0.54271749E+00  0.54140899E+00  0.54014112E+00
  0.53891335E+00  0.53772492E+00  0.53657477E+00  0.53546162E+00  0.53438394E+00
  0.53333998E+00  0.53232779E+00  0.53134521E+00  0.53038993E+00  0.52945947E+00
  0.52855122E+00  0.52766246E+00  0.52679036E+00  0.52593204E+00  0.52508456E+00
  0.52424496E+00  0.52341028E+00  0.52257758E+00  0.52174396E+00  0.52090659E+00
  0.52006274E+00  0.51920977E+00  0.51834518E+00  0.51746662E+00  0.51657189E+00
  0.51565896E+00  0.51472602E+00  0.51377143E+00  0.51279378E+00  0.51179187E+00
  0.51076475E+00  0.50971169E+00  0.50863219E+00  0.50752600E+00  0.50639312E+00
  0.50523375E+00  0.50404835E+00  0.50283759E+00  0.50160235E+00  0.50034373E+00
  0.49906301E+00  0.49776165E+00  0.49644128E+00  0.49510369E+00  0.49375079E+00
  0.49238463E+00  0.49100735E+00  0.48962118E+00  0.48822840E+00  0.48683137E+00
  0.48543243E+00  0.48403397E+00  0.48263834E+00  0.48124786E+00  0.47986482E+00
  0.47849143E+00  0.47712982E+00  0.47578204E+00  0.47445001E+00  0.47313554E+00
  0.47184028E+00  0.47056578E+00  0.46931338E+00  0.46808428E+00  0.46687950E+00
  0.46569990E+00  0.46454612E+00  0.46341866E+00  0.46231781E+00  0.46124368E+00
  0.46019620E+00  0.45917514E+00  0.45818008E+00  0.45721045E+00  0.45626551E+00
  0.45534438E+00  0.45444604E+00  0.45356933E+00  0.45271299E+00  0.45187564E+00
  0.45105581E+00  0.45025197E+00  0.44946249E+00  0.44868574E+00  0.44792000E+00
  0.44716357E+00  0.44641472E+00  0.44567174E+00  0.44493293E+00  0.44419660E+00
  0.44346115E+00  0.44272499E+00  0.44198662E+00  0.44124460E+00  0.44049759E+00
  0.43974434E+00  0.43898370E+00  0.43821464E+00  0.43743622E+00  0.43664763E+00
  0.43584819E+00  0.43503734E+00  0.43421461E+00  0.43337970E+00  0.43253240E+00
  0.43167263E+00  0.43080043E+00  0.42991595E+00  0.42901944E+00  0.42811127E+00
  0.42719191E+00  0.42626191E+00  0.42532190E+00  0.42437260E+00  0.42341477E+00
  0.42244927E+00  0.42147696E+00  0.42049879E+00  0.41951569E+00  0.41852867E+00
  0.41753870E+00  0.41654680E+00  0.41555397E+00  0.41456120E+00  0.41356946E+00
  0.41257972E+00  0.41159288E+00  0.41060983E+00  0.40963141E+00  0.40865841E+00
  0.40769156E+00  0.40673154E+00  0.40577898E+00  0.40483443E+00  0.40389840E+00
  0.40297132E+00  0.40205356E+00  0.40114543E+00  0.40024718E+00  0.39935899E+00
  0.39848096E+00  0.39761318E+00  0.39675563E+00  0.39590827E+00  0.39507100E+00
  0.39424367E+00  0.39342611E+00  0.39261808E+00  0.39181933E+00  0.39102957E+00
  0.39024850E+00  0.38947579E+00  0.38871108E+00  0.38795401E+00  0.38720421E+00
  0.38646130E+00  0.38572490E+00  0.38499462E+00  0.38427011E+00  0.38355098E+00
 gradient corrections used for XC
           5
 core charge-density (partial)
  0.31151766E+00  0.31140004E+00  0.31104744E+00  0.31046059E+00  0.30964069E+00
  0.30858945E+00  0.30730904E+00  0.30580210E+00  0.30407173E+00  0.30212148E+00
  0.29995533E+00  0.29757770E+00  0.29499341E+00  0.29220768E+00  0.28922612E+00
  0.28605467E+00  0.28269965E+00  0.27916767E+00  0.27546567E+00  0.27160086E+00
  0.26758071E+00  0.26341291E+00  0.25910539E+00  0.25466625E+00  0.25010377E+00
  0.24542636E+00  0.24064256E+00  0.23576098E+00  0.23079032E+00  0.22573932E+00
  0.22061674E+00  0.21543132E+00  0.21019180E+00  0.20490686E+00  0.19958511E+00
  0.19423506E+00  0.18886511E+00  0.18348353E+00  0.17809844E+00  0.17271778E+00
  0.16734931E+00  0.16200058E+00  0.15667892E+00  0.15139143E+00  0.14614495E+00
  0.14094608E+00  0.13580112E+00  0.13071613E+00  0.12569683E+00  0.12074869E+00
  0.11587684E+00  0.11108611E+00  0.10638103E+00  0.10176581E+00  0.97244322E-01
  0.92820136E-01  0.88496496E-01  0.84276330E-01  0.80162247E-01  0.76156544E-01
  0.72261208E-01  0.68477920E-01  0.64808063E-01  0.61252726E-01  0.57812715E-01
  0.54488553E-01  0.51280499E-01  0.48188546E-01  0.45212440E-01  0.42351682E-01
  0.39605546E-01  0.36973081E-01  0.34453131E-01  0.32044340E-01  0.29745166E-01
  0.27553891E-01  0.25468636E-01  0.23487369E-01  0.21607919E-01  0.19827990E-01
  0.18145166E-01  0.16556929E-01  0.15060669E-01  0.13653695E-01  0.12333244E-01
  0.11096495E-01  0.99405779E-02  0.88625856E-02  0.78595814E-02  0.69286105E-02
  0.60667086E-02  0.52709109E-02  0.45382607E-02  0.38658175E-02  0.32506644E-02
  0.26899154E-02  0.21807225E-02  0.17202815E-02  0.13058383E-02  0.93469403E-03
  0.60421027E-03  0.31181342E-03  0.54998845E-04 -0.16866551E-03 -0.36153586E-03
 -0.52588983E-03 -0.66392403E-03 -0.77775212E-03 -0.86940315E-03 -0.94082042E-03
 -0.99386056E-03 -0.10302930E-02 -0.10518000E-02 -0.10599764E-02 -0.10563303E-02
 -0.10422840E-02 -0.10191744E-02 -0.98825487E-03 -0.95069612E-03 -0.90758829E-03
 -0.85994267E-03 -0.80869371E-03 -0.75470126E-03 -0.69875291E-03 -0.64156643E-03
 -0.58379237E-03 -0.52601673E-03 -0.46876367E-03 -0.41249837E-03 -0.35762982E-03
 -0.30451376E-03 -0.25345555E-03 -0.20471309E-03 -0.15849974E-03 -0.11498720E-03
 -0.74308333E-04 -0.36560053E-04 -0.18060505E-05  0.29920476E-04  0.58614166E-04
  0.84294917E-04  0.10700538E-03  0.12680855E-03  0.14378542E-03  0.15803276E-03
  0.16966097E-03  0.17879205E-03  0.18555768E-03  0.19009734E-03  0.19255665E-03
  0.19308573E-03  0.19183769E-03  0.18896724E-03  0.18462940E-03  0.17897829E-03
  0.17216610E-03  0.16434206E-03  0.15565159E-03  0.14623551E-03  0.13622936E-03
  0.12576278E-03  0.11495906E-03  0.10393462E-03  0.92798773E-04  0.81653383E-04
  0.70592702E-04  0.59703232E-04  0.49063668E-04  0.38744889E-04  0.28810009E-04
  0.19314482E-04  0.10306243E-04  0.18259038E-05 -0.60930241E-05 -0.13423868E-04
 -0.20146506E-04 -0.26247046E-04 -0.31717497E-04 -0.36555408E-04 -0.40763504E-04
 -0.44349300E-04 -0.47324721E-04 -0.49705705E-04 -0.51511809E-04 -0.52765821E-04
 -0.53493367E-04 -0.53722530E-04 -0.53483475E-04 -0.52808085E-04 -0.51729604E-04
 -0.50282306E-04 -0.48501161E-04 -0.46421536E-04 -0.44078894E-04 -0.41508531E-04
 -0.38745313E-04 -0.35823446E-04 -0.32776256E-04 -0.29635998E-04 -0.26433678E-04
 -0.23198896E-04 -0.19959710E-04 -0.16742521E-04 -0.13571976E-04 -0.10470884E-04
 -0.74601603E-05 -0.45587805E-05 -0.17837533E-05  0.84989072E-06  0.33290952E-05
  0.56427607E-05  0.77817137E-05  0.97386641E-05  0.11508151E-04  0.13086480E-04
  0.14471646E-04  0.15663258E-04  0.16662446E-04  0.17471770E-04  0.18095119E-04
  0.18537608E-04  0.18805471E-04  0.18905954E-04  0.18847206E-04  0.18638164E-04
  0.18288447E-04  0.17808247E-04  0.17208220E-04  0.16499381E-04  0.15693004E-04
  0.14800522E-04  0.13833435E-04  0.12803219E-04  0.11721239E-04  0.10598676E-04
  0.94464454E-05  0.82751341E-05  0.70949362E-05  0.59155970E-05  0.47463631E-05
  0.35959385E-05  0.24724470E-05  0.13834003E-05  0.33567298E-06 -0.66451764E-06
 -0.16116249E-05 -0.25007812E-05 -0.33278011E-05 -0.40891789E-05 -0.47820817E-05
 -0.54043379E-05 -0.59544213E-05 -0.64314314E-05 -0.68350697E-05 -0.71656139E-05
 -0.74238874E-05 -0.76112280E-05 -0.77294529E-05 -0.77808232E-05 -0.77680058E-05
 -0.76940344E-05 -0.75622701E-05 -0.73763609E-05 -0.71402014E-05 -0.68578922E-05
 -0.65336997E-05 -0.61720171E-05 -0.57773258E-05 -0.53541573E-05 -0.49070582E-05
 -0.44405544E-05 -0.39591195E-05 -0.34671426E-05 -0.29689002E-05 -0.24685287E-05
 -0.19700001E-05 -0.14770993E-05 -0.99340432E-06 -0.52226854E-06 -0.66805393E-07
  0.37012438E-06  0.78592319E-06  0.11782647E-05  0.15450993E-05  0.18846582E-05
  0.21954538E-05  0.24762796E-05  0.27262071E-05  0.29445808E-05  0.31310120E-05
  0.32853704E-05  0.34077743E-05  0.34985794E-05  0.35583664E-05  0.35879275E-05
  0.35882517E-05  0.35605094E-05  0.35060364E-05  0.34263171E-05  0.33229676E-05
  0.31977182E-05  0.30523961E-05  0.28889078E-05  0.27092218E-05  0.25153515E-05
  0.23093384E-05  0.20932359E-05  0.18690934E-05  0.16389412E-05  0.14047766E-05
  0.11685495E-05  0.93215058E-06  0.69739900E-06  0.46603184E-06  0.23969429E-06
  0.19930951E-07 -0.19182180E-06 -0.39424237E-06 -0.58612942E-06 -0.76640625E-06
 -0.93412405E-06 -0.10884642E-05 -0.12287396E-05 -0.13543944E-05 -0.14650038E-05
 -0.15602721E-05 -0.16400300E-05 -0.17042314E-05 -0.17529491E-05 -0.17863699E-05
 -0.18047891E-05 -0.18086043E-05 -0.17983089E-05 -0.17744845E-05 -0.17377939E-05
 -0.16889732E-05 -0.16288234E-05 -0.15582023E-05 -0.14780161E-05 -0.13892112E-05
 -0.12927651E-05 -0.11896789E-05 -0.10809682E-05 -0.96765573E-06 -0.85076304E-06
 -0.73130323E-06 -0.61027362E-06 -0.48864890E-06 -0.36737473E-06 -0.24736166E-06
 -0.12947962E-06 -0.14552872E-07  0.96644587E-07  0.20339301E-06  0.30503041E-06
  0.40095551E-06  0.49063016E-06  0.57358117E-06  0.64940166E-06  0.71775184E-06
  0.77835931E-06  0.83101878E-06  0.87559143E-06  0.91200367E-06  0.94024556E-06
  0.96036880E-06  0.97248427E-06  0.97675933E-06  0.97341465E-06  0.96272094E-06
  0.94499520E-06  0.92059697E-06  0.88992422E-06  0.85340920E-06  0.81151411E-06
  0.76472671E-06  0.71355592E-06  0.65852734E-06  0.60017882E-06  0.53905613E-06
  0.47570861E-06  0.41068502E-06  0.34452949E-06  0.27777762E-06  0.21095279E-06
  0.14456265E-06  0.79095880E-07  0.15019118E-07 -0.47225779E-07 -0.10722426E-06
 -0.16459130E-06 -0.21897336E-06 -0.27005001E-06 -0.31753532E-06 -0.36117891E-06
 -0.40076671E-06 -0.43612148E-06 -0.46710296E-06 -0.49360782E-06 -0.51556933E-06
 -0.53295671E-06 -0.54577429E-06 -0.55406046E-06 -0.55788635E-06 -0.55735432E-06
 -0.55259627E-06 -0.54377182E-06 -0.53106629E-06 -0.51468856E-06 -0.49486885E-06
 -0.47185640E-06 -0.44591701E-06 -0.41733068E-06 -0.38638904E-06 -0.35339291E-06
 -0.31864977E-06 -0.28247131E-06 -0.24517102E-06 -0.20706178E-06 -0.16845359E-06
 -0.12965132E-06 -0.90952667E-07 -0.52646096E-07 -0.15008991E-07  0.21694085E-07
  0.57212984E-07  0.91313422E-07  0.12377826E-06  0.15440865E-06  0.18302495E-06
  0.20946756E-06  0.23359752E-06  0.25529700E-06  0.27446951E-06  0.29104011E-06
  0.30495532E-06  0.31618293E-06  0.32471166E-06  0.33055067E-06  0.33372892E-06
  0.33429444E-06  0.33231345E-06  0.32786933E-06  0.32106162E-06  0.31200478E-06
  0.30082695E-06  0.28766868E-06  0.27268149E-06  0.25602651E-06  0.23787301E-06
  0.21839692E-06  0.19777937E-06  0.17620520E-06  0.15386152E-06  0.13093620E-06
  0.10761657E-06  0.84087927E-07  0.60532316E-07  0.37127213E-07  0.14044354E-07
 -0.85513900E-08 -0.30503055E-07 -0.51662535E-07 -0.71891451E-07 -0.91061919E-07
 -0.10905723E-06 -0.12577242E-06 -0.14111474E-06 -0.15500404E-06 -0.16737303E-06
 -0.17816747E-06 -0.18734618E-06 -0.19488110E-06 -0.20075709E-06 -0.20497174E-06
 -0.20753507E-06 -0.20846917E-06 -0.20780765E-06 -0.20559521E-06 -0.20188695E-06
 -0.19674772E-06 -0.19025143E-06 -0.18248025E-06 -0.17352380E-06 -0.16347831E-06
 -0.15244573E-06 -0.14053287E-06 -0.12785043E-06 -0.11451217E-06 -0.10063391E-06
 -0.86332684E-07 -0.71725806E-07 -0.56930025E-07 -0.42060659E-07 -0.27230784E-07
 -0.12550450E-07  0.18740576E-08  0.15940913E-07  0.29553396E-07  0.42620480E-07
  0.55057373E-07  0.66785994E-07  0.77735386E-07  0.87842073E-07  0.97050352E-07
  0.10531252E-06  0.11258903E-06  0.11884860E-06  0.12406824E-06  0.12823324E-06
  0.13133708E-06  0.13338124E-06  0.13437510E-06  0.13433560E-06  0.13328695E-06
  0.13126033E-06  0.12829345E-06  0.12443014E-06  0.11971987E-06  0.11421729E-06
  0.10798165E-06  0.10107632E-06  0.93568162E-07  0.85527012E-07  0.77025066E-07
  0.68136300E-07  0.58935881E-07  0.49499589E-07  0.39903239E-07  0.30222122E-07
  0.20530459E-07  0.10900881E-07  0.14039239E-08 -0.78924441E-08 -0.16923266E-07
 -0.25627008E-07 -0.33945939E-07 -0.41826471E-07 -0.49219464E-07 -0.56080488E-07
 -0.62370046E-07 -0.68053761E-07 -0.73102510E-07 -0.77492530E-07 -0.81205469E-07
 -0.84228407E-07 -0.86553829E-07 -0.88179566E-07 -0.89108689E-07 -0.89349375E-07
 -0.88914735E-07 -0.87822610E-07 -0.86095334E-07 -0.83759477E-07 -0.80845549E-07
 -0.77387699E-07 -0.73423375E-07 -0.68992984E-07 -0.64139526E-07 -0.58908221E-07
 -0.53346130E-07 -0.47501764E-07 -0.41424698E-07 -0.35165184E-07 -0.28773758E-07
 -0.22300870E-07 -0.15796506E-07 -0.93098346E-08 -0.28888549E-08  0.34199279E-08
  0.95718173E-08  0.15524217E-07  0.21236901E-07  0.26672261E-07  0.31795530E-07
  0.36574982E-07  0.40982096E-07  0.44991708E-07  0.48582123E-07  0.51735204E-07
  0.54436431E-07  0.56674938E-07  0.58443513E-07  0.59738578E-07  0.60560142E-07
  0.60911725E-07  0.60800264E-07  0.60235987E-07  0.59232274E-07  0.57805494E-07
  0.55974820E-07  0.53762034E-07  0.51191315E-07  0.48289005E-07  0.45083377E-07
  0.41604386E-07  0.37883414E-07  0.33953007E-07  0.29846615E-07  0.25598326E-07
  0.21242601E-07  0.16814009E-07  0.12346978E-07  0.78755344E-08  0.34330655E-08
 -0.94791625E-09 -0.52359960E-08 -0.94010664E-08 -0.13414524E-07 -0.17249452E-07
 -0.20880783E-07 -0.24285452E-07 -0.27442524E-07 -0.30333307E-07 -0.32941449E-07
 -0.35253010E-07 -0.37256521E-07 -0.38943016E-07 -0.40306057E-07 -0.41341724E-07
 -0.42048602E-07 -0.42427739E-07 -0.42482595E-07 -0.42218964E-07 -0.41644891E-07
 -0.40770571E-07 -0.39608226E-07 -0.38171981E-07 -0.36477724E-07 -0.34542951E-07
 -0.32386611E-07 -0.30028934E-07 -0.27491260E-07 -0.24795861E-07 -0.21965758E-07
 -0.19024535E-07 -0.15996158E-07 -0.12904789E-07 -0.97746024E-08 -0.66296097E-08
 -0.34934828E-08 -0.38938632E-09  0.26601837E-08  0.56335536E-08  0.85100170E-08
  0.11269969E-07  0.13895032E-07  0.16368166E-07  0.18673772E-07  0.20797780E-07
  0.22727724E-07  0.24452804E-07  0.25963939E-07  0.27253795E-07  0.28316815E-07
  0.29149223E-07  0.29749020E-07  0.30115968E-07  0.30251557E-07  0.30158965E-07
  0.29843002E-07  0.29310047E-07  0.28567970E-07  0.27626049E-07  0.26494876E-07
  0.25186254E-07  0.23713089E-07  0.22089272E-07  0.20329566E-07  0.18449473E-07
  0.16465111E-07  0.14393083E-07  0.12250348E-07  0.10054086E-07  0.78215666E-08
  0.55700254E-08  0.33165324E-08  0.10778706E-08 -0.11295826E-08 -0.32899693E-08
 -0.53880592E-08 -0.74093508E-08 -0.93401657E-08 -0.11167735E-07 -0.12880277E-07
 -0.14467070E-07 -0.15918507E-07 -0.17226153E-07 -0.18382784E-07 -0.19382420E-07
 -0.20220346E-07 -0.20893127E-07 -0.21398612E-07 -0.21735924E-07 -0.21905445E-07
 -0.21908798E-07 -0.21748803E-07 -0.21429445E-07 -0.20955819E-07 -0.20334076E-07
 -0.19571359E-07 -0.18675732E-07 -0.17656106E-07 -0.16522160E-07 -0.15284252E-07
 -0.13953339E-07 -0.12540875E-07 -0.11058730E-07 -0.95190844E-08 -0.79343426E-08
 -0.63170322E-08 -0.46797116E-08 -0.30348765E-08 -0.13948685E-08  0.22821303E-09
  0.18225965E-08  0.33769194E-08  0.48803054E-08  0.63224361E-08  0.76936186E-08
  0.89848460E-08  0.10187853E-07  0.11295164E-07  0.12300135E-07  0.13196990E-07
  0.13980850E-07  0.14647750E-07  0.15194658E-07  0.15619480E-07  0.15921059E-07
  0.16099170E-07  0.16154506E-07  0.16088657E-07  0.15904084E-07  0.15604087E-07
  0.15192767E-07  0.14674983E-07  0.14056300E-07  0.13342944E-07  0.12541739E-07
  0.11660047E-07  0.10705711E-07  0.96869829E-08  0.86124580E-08  0.74910074E-08
  0.63317071E-08  0.51437673E-08  0.39364630E-08  0.27190643E-08  0.15007678E-08
  0.29063013E-09 -0.90249652E-09 -0.20700268E-08 -0.32037011E-08 -0.42956414E-08
 -0.53384033E-08 -0.63250241E-08 -0.72490668E-08 -0.81046589E-08 -0.88865269E-08
 -0.95900263E-08 -0.10211165E-07 -0.10746624E-07 -0.11193769E-07 -0.11550661E-07
 -0.11816061E-07 -0.11989424E-07 -0.12070896E-07 -0.12061299E-07 -0.11962119E-07
 -0.11775479E-07 -0.11504118E-07 -0.11151360E-07 -0.10721077E-07 -0.10217658E-07
 -0.96459647E-08 -0.90112877E-08 -0.83193035E-08 -0.75760252E-08 -0.67877528E-08
 -0.59610229E-08 -0.51025566E-08 -0.42192070E-08 -0.33179064E-08 -0.24056145E-08
 -0.14892661E-08 -0.57572065E-09  0.32828754E-09  0.12161969E-08  0.20816643E-08
  0.29186090E-08  0.37212529E-08  0.44841591E-08  0.52022668E-08  0.58709228E-08
  0.64859098E-08  0.70434709E-08  0.75403306E-08  0.79737114E-08  0.83413472E-08
  0.86414921E-08  0.88729258E-08  0.90349543E-08  0.91274076E-08  0.91506328E-08
  0.91054842E-08  0.89933093E-08  0.88159313E-08  0.85756289E-08  0.82751128E-08
  0.79174988E-08  0.75062795E-08  0.70452925E-08  0.65386869E-08  0.59908888E-08
  0.54065636E-08  0.47905788E-08  0.41479649E-08  0.34838756E-08  0.28035484E-08
  0.21122645E-08  0.14153092E-08  0.71793267E-09  0.25312191E-10 -0.65748547E-09
 -0.13255396E-08 -0.19741099E-08 -0.25986687E-08 -0.31949314E-08 -0.37588843E-08
 -0.42868110E-08 -0.47753146E-08 -0.52213391E-08 -0.56221863E-08 -0.59755309E-08
 -0.62794326E-08 -0.65323441E-08 -0.67331178E-08 -0.68810080E-08 -0.69756707E-08
 -0.70171608E-08 -0.70059254E-08 -0.69427955E-08 -0.68289740E-08 -0.66660218E-08
 -0.64558410E-08 -0.62006564E-08 -0.59029939E-08 -0.55656582E-08 -0.51917079E-08
 -0.47844294E-08 -0.43473092E-08 -0.38840059E-08 -0.33983203E-08 -0.28941654E-08
 -0.23755362E-08 -0.18464790E-08 -0.13110605E-08 -0.77333799E-09 -0.23732920E-09
  0.29301670E-09  0.81384727E-09  0.13214339E-08  0.18121977E-08  0.22827336E-08
  0.27298333E-08  0.31505063E-08  0.35419985E-08  0.39018099E-08  0.42277089E-08
  0.45177458E-08  0.47702624E-08  0.49839013E-08  0.51576107E-08  0.52906488E-08
  0.53825848E-08  0.54332976E-08  0.54429726E-08  0.54120963E-08  0.53414484E-08
  0.52320922E-08  0.50853628E-08  0.49028534E-08  0.46864006E-08  0.44380668E-08
  0.41601226E-08  0.38550267E-08  0.35254056E-08  0.31740316E-08  0.28038008E-08
  0.24177096E-08  0.20188316E-08  0.16102936E-08  0.11952522E-08  0.77686956E-09
  0.35829050E-09 -0.57380805E-10 -0.46710305E-09 -0.86791944E-09 -0.12569784E-08
 -0.16315532E-08 -0.19890604E-08 -0.23270771E-08 -0.26433566E-08 -0.29358425E-08
 -0.32026819E-08 -0.34422358E-08 -0.36530884E-08 -0.38340553E-08 -0.39841881E-08
 -0.41027794E-08 -0.41893639E-08 -0.42437194E-08 -0.42658647E-08 -0.42560568E-08
 -0.42147853E-08 -0.41427663E-08 -0.40409338E-08 -0.39104302E-08 -0.37525950E-08
 -0.35689522E-08 -0.33611971E-08 -0.31311812E-08 -0.28808965E-08 -0.26124593E-08
 -0.23280925E-08 -0.20301082E-08 -0.17208895E-08 -0.14028715E-08 -0.10785233E-08
 -0.75032891E-09 -0.42076891E-09 -0.92302090E-10  0.23265235E-09  0.55173216E-09
  0.86264878E-09  0.11632033E-08  0.14513013E-08  0.17249675E-08  0.19823582E-08
  0.22217738E-08  0.24416689E-08  0.26406623E-08  0.28175448E-08  0.29712860E-08
  0.31010395E-08  0.32061473E-08  0.32861417E-08  0.33407466E-08  0.33698773E-08
  0.33736381E-08  0.33523201E-08  0.33063957E-08  0.32365136E-08  0.31434914E-08
  0.30283076E-08  0.28920921E-08  0.27361165E-08  0.25617824E-08  0.23706096E-08
  0.21642237E-08  0.19443423E-08  0.17127616E-08  0.14713418E-08  0.12219928E-08
  0.96665969E-09  0.70730734E-09  0.44590626E-09  0.18441768E-09 -0.75220739E-10
 -0.33110891E-09 -0.58139788E-09 -0.82430287E-09 -0.10581156E-08 -0.12812161E-08
 -0.14920834E-08 -0.16893056E-08 -0.18715890E-08 -0.20377661E-08 -0.21868030E-08
 -0.23178049E-08 -0.24300212E-08 -0.25228497E-08 -0.25958384E-08 -0.26486877E-08
 -0.26812507E-08 -0.26935320E-08 -0.26856861E-08 -0.26580146E-08 -0.26109618E-08
 -0.25451103E-08 -0.24611741E-08 -0.23599928E-08 -0.22425230E-08 -0.21098305E-08
 -0.19630806E-08 -0.18035286E-08 -0.16325094E-08 -0.14514267E-08 -0.12617416E-08
 kinetic energy density (partial)
  0.50462793E+02  0.50443851E+02  0.50387064E+02  0.50292548E+02  0.50160497E+02
  0.49991184E+02  0.49784955E+02  0.49542232E+02  0.49263510E+02  0.48949357E+02
  0.48600411E+02  0.48217377E+02  0.47801026E+02  0.47352193E+02  0.46871774E+02
  0.46360722E+02  0.45820045E+02  0.45250805E+02  0.44654109E+02  0.44031112E+02
  0.43383010E+02  0.42711036E+02  0.42016460E+02  0.41300580E+02  0.40564722E+02
  0.39810235E+02  0.39038487E+02  0.38250861E+02  0.37448753E+02  0.36633565E+02
  0.35806702E+02  0.34969572E+02  0.34123577E+02  0.33270111E+02  0.32410559E+02
  0.31546292E+02  0.30678660E+02  0.29808996E+02  0.28938608E+02  0.28068775E+02
  0.27200748E+02  0.26335747E+02  0.25474954E+02  0.24619516E+02  0.23770540E+02
  0.22929092E+02  0.22096194E+02  0.21272824E+02  0.20459914E+02  0.19658349E+02
  0.18868963E+02  0.18092544E+02  0.17329826E+02  0.16581497E+02  0.15848189E+02
  0.15130486E+02  0.14428920E+02  0.13743971E+02  0.13076069E+02  0.12425595E+02
  0.11792876E+02  0.11178194E+02  0.10581781E+02  0.10003821E+02  0.94444546E+01
  0.89037744E+01  0.83818310E+01  0.78786325E+01  0.73941461E+01  0.69283000E+01
  0.64809847E+01  0.60520553E+01  0.56413322E+01  0.52486042E+01  0.48736290E+01
  0.45161363E+01  0.41758287E+01  0.38523842E+01  0.35454578E+01  0.32546836E+01
  0.29796764E+01  0.27200338E+01  0.24753383E+01  0.22451586E+01  0.20290515E+01
  0.18265641E+01  0.16372351E+01  0.14605965E+01  0.12961756E+01  0.11434960E+01
  0.10020795E+01  0.87144737E+00  0.75112199E+00  0.64062782E+00  0.53949288E+00
  0.44724985E+00  0.36343723E+00  0.28760033E+00  0.21929227E+00  0.15807487E+00
  0.10351949E+00  0.55207735E-01  0.12732179E-01 -0.24303039E-01 -0.56281678E-01
 -0.83574920E-01 -0.10654097E+00 -0.12552470E+00 -0.14085740E+00 -0.15285655E+00
 -0.16182565E+00 -0.16805413E+00 -0.17181732E+00 -0.17337645E+00 -0.17297867E+00
 -0.17085721E+00 -0.16723149E+00 -0.16230732E+00 -0.15627710E+00 -0.14932011E+00
 -0.14160280E+00 -0.13327910E+00 -0.12449075E+00 -0.11536772E+00 -0.10602856E+00
 -0.96580839E-01 -0.87121553E-01 -0.77737580E-01 -0.68506123E-01 -0.59495177E-01
 -0.50763988E-01 -0.42363530E-01 -0.34336970E-01 -0.26720143E-01 -0.19542022E-01
 -0.12825177E-01 -0.65862442E-02 -0.83636889E-03  0.44183460E-02  0.91764083E-02
  0.13440514E-01  0.17217138E-01  0.20516138E-01  0.23350372E-01  0.25735331E-01
  0.27688788E-01  0.29230463E-01  0.30381707E-01  0.31165196E-01  0.31604649E-01
  0.31724565E-01  0.31549968E-01  0.31106180E-01  0.30418603E-01  0.29512529E-01
  0.28412951E-01  0.27144409E-01  0.25730838E-01  0.24195437E-01  0.22560558E-01
  0.20847603E-01  0.19076939E-01  0.17267827E-01  0.15438360E-01  0.13605424E-01
  0.11784656E-01  0.99904273E-02  0.82358281E-02  0.65326663E-02  0.48914742E-02
  0.33215237E-02  0.18308489E-02  0.42627633E-03 -0.88653890E-03 -0.21030713E-02
 -0.32198783E-02 -0.42345489E-02 -0.51456493E-02 -0.59526647E-02 -0.66559396E-02
 -0.72566151E-02 -0.77565659E-02 -0.81583357E-02 -0.84650728E-02 -0.86804654E-02
 -0.88086774E-02 -0.88542856E-02 -0.88222176E-02 -0.87176918E-02 -0.85461588E-02
 -0.83132453E-02 -0.80247006E-02 -0.76863450E-02 -0.73040218E-02 -0.68835517E-02
 -0.64306905E-02 -0.59510897E-02 -0.54502610E-02 -0.49335430E-02 -0.44060721E-02
 -0.38727561E-02 -0.33382518E-02 -0.28069445E-02 -0.22829323E-02 -0.17700119E-02
 -0.12716689E-02 -0.79106938E-03 -0.33105565E-03  0.10585624E-03  0.51747616E-03
  0.90193732E-03  0.12576915E-02  0.15835022E-02  0.18784360E-02  0.21418523E-02
  0.23733912E-02  0.25729606E-02  0.27407214E-02  0.28770725E-02  0.29826341E-02
  0.30582310E-02  0.31048749E-02  0.31237468E-02  0.31161784E-02  0.30836344E-02
  0.30276938E-02  0.29500321E-02  0.28524037E-02  0.27366243E-02  0.26045540E-02
  0.24580809E-02  0.22991060E-02  0.21295276E-02  0.19512275E-02  0.17660578E-02
  0.15758286E-02  0.13822964E-02  0.11871537E-02  0.99201990E-03  0.79843257E-03
  0.60784021E-03  0.42159588E-03  0.24095190E-03  0.67055457E-04 -0.99054697E-04
 -0.25645066E-03 -0.40431683E-03 -0.54195050E-03 -0.66876159E-03 -0.78427152E-03
 -0.88811144E-03 -0.98001961E-03 -0.10598382E-02 -0.11275097E-02 -0.11830720E-02
 -0.12266542E-02 -0.12584711E-02 -0.12788172E-02 -0.12880614E-02 -0.12866400E-02
 -0.12750509E-02 -0.12538470E-02 -0.12236289E-02 -0.11850390E-02 -0.11387542E-02
 -0.10854796E-02 -0.10259418E-02 -0.96088237E-03 -0.89105204E-03 -0.81720427E-03
 -0.74008970E-03 -0.66045062E-03 -0.57901580E-03 -0.49649567E-03 -0.41357780E-03
 -0.33092278E-03 -0.24916049E-03 -0.16888672E-03 -0.90660236E-04 -0.15000166E-04
  0.57616110E-04  0.12675475E-03  0.19202681E-03  0.25308924E-03  0.30964545E-03
  0.36144562E-03  0.40828650E-03  0.45001104E-03  0.48650757E-03  0.51770877E-03
  0.54359029E-03  0.56416917E-03  0.57950199E-03  0.58968284E-03  0.59484102E-03
  0.59513872E-03  0.59076838E-03  0.58195009E-03  0.56892880E-03  0.55197150E-03
  0.53136434E-03  0.50740973E-03  0.48042345E-03  0.45073174E-03  0.41866847E-03
  0.38457236E-03  0.34878426E-03  0.31164452E-03  0.27349048E-03  0.23465408E-03
  0.19545961E-03  0.15622155E-03  0.11724268E-03  0.78812198E-04  0.41204156E-04
  0.46759603E-05 -0.30532894E-04 -0.64201923E-04 -0.96130579E-04 -0.12613898E-03
 -0.15406849E-03 -0.17978206E-03 -0.20316449E-03 -0.22412243E-03 -0.24258427E-03
 -0.25849991E-03 -0.27184025E-03 -0.28259671E-03 -0.29078052E-03 -0.29642188E-03
 -0.29956908E-03 -0.30028747E-03 -0.29865834E-03 -0.29477777E-03 -0.28875535E-03
 -0.28071290E-03 -0.27078313E-03 -0.25910825E-03 -0.24583856E-03 -0.23113110E-03
 -0.21514819E-03 -0.19805606E-03 -0.18002348E-03 -0.16122040E-03 -0.14181668E-03
 -0.12198079E-03 -0.10187864E-03 -0.81672422E-04 -0.61519524E-04 -0.41571550E-04
 -0.21973380E-04 -0.28623220E-05  0.15632640E-04  0.33391527E-04  0.50303946E-04
  0.66269585E-04  0.81198620E-04  0.95012022E-04  0.10764179E-03  0.11903107E-03
  0.12913424E-03  0.13791681E-03  0.14535539E-03  0.15143742E-03  0.15616096E-03
  0.15953432E-03  0.16157569E-03  0.16231265E-03  0.16178167E-03  0.16002758E-03
  0.15710292E-03  0.15306731E-03  0.14798681E-03  0.14193320E-03  0.13498325E-03
  0.12721801E-03  0.11872208E-03  0.10958283E-03  0.99889713E-04  0.89733508E-04
  0.79205605E-04  0.68397314E-04  0.57399189E-04  0.46300381E-04  0.35188018E-04
  0.24146626E-04  0.13257581E-04  0.25986028E-05 -0.77567068E-05 -0.17739282E-04
 -0.27284966E-04 -0.36334836E-04 -0.44835478E-04 -0.52739217E-04 -0.60004293E-04
 -0.66594991E-04 -0.72481722E-04 -0.77641060E-04 -0.82055724E-04 -0.85714528E-04
 -0.88612272E-04 -0.90749611E-04 -0.92132867E-04 -0.92773818E-04 -0.92689447E-04
 -0.91901661E-04 -0.90436984E-04 -0.88326225E-04 -0.85604121E-04 -0.82308968E-04
 -0.78482228E-04 -0.74168134E-04 -0.69413279E-04 -0.64266205E-04 -0.58776980E-04
 -0.52996793E-04 -0.46977534E-04 -0.40771393E-04 -0.34430465E-04 -0.28006367E-04
 -0.21549867E-04 -0.15110535E-04 -0.87364079E-05 -0.24736794E-05  0.36335919E-05
  0.95437474E-05  0.15217770E-04  0.20619497E-04  0.25715812E-04  0.30476799E-04
  0.34875879E-04  0.38889913E-04  0.42499276E-04  0.45687907E-04  0.48443327E-04
  0.50756637E-04  0.52622478E-04  0.54038982E-04  0.55007682E-04  0.55533414E-04
  0.55624188E-04  0.55291042E-04  0.54547880E-04  0.53411291E-04  0.51900352E-04
  0.50036420E-04  0.47842914E-04  0.45345087E-04  0.42569786E-04  0.39545215E-04
  0.36300688E-04  0.32866382E-04  0.29273093E-04  0.25551988E-04  0.21734369E-04
  0.17851435E-04  0.13934054E-04  0.10012543E-04  0.61164606E-05  0.22744047E-05
 -0.14861717E-05 -0.51391350E-05 -0.86598296E-05 -0.12025222E-04 -0.15214030E-04
 -0.18206833E-04 -0.20986172E-04 -0.23536622E-04 -0.25844860E-04 -0.27899707E-04
 -0.29692156E-04 -0.31215383E-04 -0.32464743E-04 -0.33437750E-04 -0.34134037E-04
 -0.34555310E-04 -0.34705279E-04 -0.34589584E-04 -0.34215701E-04 -0.33592844E-04
 -0.32731849E-04 -0.31645061E-04 -0.30346196E-04 -0.28850212E-04 -0.27173166E-04
 -0.25332067E-04 -0.23344727E-04 -0.21229611E-04 -0.19005681E-04 -0.16692248E-04
 -0.14308817E-04 -0.11874940E-04 -0.94100693E-05 -0.69334167E-05 -0.44638169E-05
 -0.20195973E-05  0.38154509E-06  0.27226592E-05  0.49876477E-05  0.71613650E-05
  0.92297070E-05  0.11179690E-04  0.12999520E-04  0.14678651E-04  0.16207835E-04
  0.17579159E-04  0.18786070E-04  0.19823392E-04  0.20687334E-04  0.21375484E-04
  0.21886792E-04  0.22221551E-04  0.22381358E-04  0.22369075E-04  0.22188777E-04
  0.21845696E-04  0.21346150E-04  0.20697478E-04  0.19907957E-04  0.18986720E-04
  0.17943673E-04  0.16789396E-04  0.15535057E-04  0.14192313E-04  0.12773210E-04
  0.11290091E-04  0.97554903E-05  0.81820445E-05  0.65823912E-05  0.49690777E-05
  0.33544698E-05  0.17506650E-05  0.16940833E-06 -0.13779858E-05 -0.28807081E-05
 -0.43285224E-05 -0.57118293E-05 -0.70217221E-05 -0.82500376E-05 -0.93894001E-05
 -0.10433258E-04 -0.11375914E-04 -0.12212548E-04 -0.12939235E-04 -0.13552953E-04
 -0.14051585E-04 -0.14433915E-04 -0.14699619E-04 -0.14849246E-04 -0.14884196E-04
 -0.14806689E-04 -0.14619733E-04 -0.14327086E-04 -0.13933207E-04 -0.13443212E-04
 -0.12862822E-04 -0.12198305E-04 -0.11456418E-04 -0.10644353E-04 -0.97696637E-05
 -0.88402116E-05 -0.78640960E-05 -0.68495907E-05 -0.58050792E-05 -0.47389900E-05
 -0.36597336E-05 -0.25756409E-05 -0.14949029E-05 -0.42551354E-06  0.62478561E-06
  0.16485569E-05  0.26387153E-05  0.35885735E-05  0.44918828E-05  0.53428703E-05
  0.61362714E-05  0.68673584E-05  0.75319641E-05  0.81265011E-05  0.86479761E-05
  0.90940000E-05  0.94627928E-05  0.97531847E-05  0.99646114E-05  0.10097107E-04
  0.10151289E-04  0.10128347E-04  0.10030015E-04  0.98585543E-05  0.96167213E-05
  0.93077398E-05  0.89352663E-05  0.85033550E-05  0.80164194E-05  0.74791925E-05
  0.68966856E-05  0.62741455E-05  0.56170109E-05  0.49308687E-05  0.42214095E-05
  0.34943837E-05  0.27555576E-05  0.20106705E-05  0.12653931E-05  0.52528666E-06
 -0.20423570E-06 -0.91794621E-06 -0.16108373E-05 -0.22781544E-05 -0.29154258E-05
 -0.35184905E-05 -0.40835225E-05 -0.46070528E-05 -0.50859880E-05 -0.55176254E-05
 -0.58996661E-05 -0.62302235E-05 -0.65078294E-05 -0.67314370E-05 -0.69004200E-05
 -0.70145697E-05 -0.70740877E-05 -0.70795773E-05 -0.70320308E-05 -0.69328151E-05
 -0.67836538E-05 -0.65866084E-05 -0.63440560E-05 -0.60586661E-05 -0.57333752E-05
 -0.53713599E-05 -0.49760091E-05 -0.45508947E-05 -0.40997419E-05 -0.36263990E-05
 -0.31348061E-05 -0.26289648E-05 -0.21129071E-05 -0.15906655E-05 -0.10662427E-05
 -0.54358283E-06 -0.26543502E-07  0.48113122E-06  0.97583631E-06  0.14541298E-05
  0.19127552E-05  0.23486620E-05  0.27590247E-05  0.31412592E-05  0.34930375E-05
  0.38123001E-05  0.40972667E-05  0.43464436E-05  0.45586299E-05  0.47329209E-05
  0.48687092E-05  0.49656842E-05  0.50238283E-05  0.50434124E-05  0.50249882E-05
  0.49693790E-05  0.48776691E-05  0.47511907E-05  0.45915098E-05  0.44004103E-05
  0.41798768E-05  0.39320765E-05  0.36593399E-05  0.33641408E-05  0.30490749E-05
  0.27168392E-05  0.23702097E-05  0.20120199E-05  0.16451383E-05  0.12724474E-05
  0.89682133E-06  0.52110538E-06  0.14809518E-06 -0.21948299E-06 -0.57899105E-06
 -0.92789716E-06 -0.12637924E-05 -0.15844067E-05 -0.18876227E-05 -0.21714890E-05
 -0.24342319E-05 -0.26742649E-05 -0.28901975E-05 -0.30808418E-05 -0.32452181E-05
 -0.33825582E-05 -0.34923075E-05 -0.35741255E-05 -0.36278845E-05 -0.36536669E-05
 -0.36517610E-05 -0.36226552E-05 -0.35670313E-05 -0.34857556E-05 -0.33798698E-05
 -0.32505801E-05 -0.30992457E-05 -0.29273657E-05 -0.27365662E-05 -0.25285857E-05
 -0.23052604E-05 -0.20685094E-05 -0.18203185E-05 -0.15627249E-05 -0.12978012E-05
 -0.10276391E-05 -0.75433428E-06 -0.47997023E-06 -0.20660351E-06  0.63751179E-07
  0.32913513E-06  0.58765917E-06  0.83751643E-06  0.10769943E-05  0.13044857E-05
  0.15184987E-05  0.17176662E-05  0.19007537E-05  0.20666661E-05  0.22144537E-05
  0.23433167E-05  0.24526085E-05  0.25418383E-05  0.26106718E-05  0.26589314E-05
  0.26865947E-05  0.26937923E-05  0.26808040E-05  0.26480549E-05  0.25961093E-05
  0.25256645E-05  0.24375436E-05  0.23326872E-05  0.22121447E-05  0.20770644E-05
  0.19286841E-05  0.17683199E-05  0.15973554E-05  0.14172307E-05  0.12294303E-05
  0.10354719E-05  0.83689448E-06  0.63524649E-06  0.43207445E-06  0.22891145E-06
  0.27266086E-07 -0.17138831E-06 -0.36562397E-06 -0.55406852E-06 -0.73541424E-06
 -0.90842668E-06 -0.10719526E-05 -0.12249273E-05 -0.13663809E-05 -0.14954441E-05
 -0.16113532E-05 -0.17134537E-05 -0.18012038E-05 -0.18741762E-05 -0.19320599E-05
 -0.19746605E-05 -0.20018997E-05 -0.20138142E-05 -0.20105536E-05 -0.19923775E-05
 -0.19596519E-05 -0.19128450E-05 -0.18525219E-05 -0.17793388E-05 -0.16940375E-05
 -0.15974376E-05 -0.14904299E-05 -0.13739686E-05 -0.12490632E-05 -0.11167701E-05
 -0.97818446E-06 -0.83443099E-06 -0.68665560E-06 -0.53601647E-06 -0.38367529E-06
 -0.23078866E-06 -0.78499651E-07  0.72070493E-07  0.21983025E-06  0.36372544E-06
  0.50274646E-06  0.63593506E-06  0.76239060E-06  0.88127590E-06  0.99182242E-06
  0.10933349E-05  0.11851954E-05  0.12668667E-05  0.13378951E-05  0.13979125E-05
  0.14466376E-05  0.14838771E-05  0.15095257E-05  0.15235651E-05  0.15260635E-05
  0.15171734E-05  0.14971296E-05  0.14662455E-05  0.14249104E-05  0.13735853E-05
  0.13127982E-05  0.12431393E-05  0.11652559E-05  0.10798465E-05  0.98765520E-06
  0.88946538E-06  0.78609323E-06  0.67838144E-06  0.56719245E-06  0.45340188E-06
  0.33789181E-06  0.22154422E-06  0.10523445E-06 -0.10175163E-07 -0.12384145E-06
 -0.23494638E-06 -0.34270271E-06 -0.44635937E-06 -0.54520648E-06 -0.63858000E-06
 -0.72586596E-06 -0.80650428E-06 -0.87999215E-06 -0.94588688E-06 -0.10038083E-05
 -0.10534408E-05 -0.10945345E-05 -0.11269064E-05 -0.11504405E-05 -0.11650880E-05
 -0.11708666E-05 -0.11678592E-05 -0.11562127E-05 -0.11361359E-05 -0.11078968E-05
 -0.10718202E-05 -0.10282843E-05 -0.97771712E-06 -0.92059264E-06 -0.85742676E-06
 -0.78877279E-06 -0.71521692E-06 -0.63737334E-06 -0.55587938E-06 -0.47139047E-06
 -0.38457502E-06 -0.29610933E-06 -0.20667245E-06 -0.11694118E-06 -0.27585058E-07
  0.60738449E-07  0.14738866E-06  0.23174617E-06  0.31321711E-06  0.39123719E-06
  0.46527548E-06  0.53483783E-06  0.59947002E-06  0.65876060E-06  0.71234327E-06
  0.75989903E-06  0.80115786E-06  0.83590001E-06  0.86395700E-06  0.88521209E-06
  0.89960048E-06  0.90710907E-06  0.90777584E-06  0.90168887E-06  0.88898504E-06
  0.86984830E-06  0.84450771E-06  0.81323516E-06  0.77634270E-06  0.73417977E-06
  0.68713009E-06  0.63560834E-06  0.58005671E-06  0.52094125E-06  0.45874809E-06
  0.39397964E-06  0.32715059E-06  0.25878397E-06  0.18940720E-06  0.11954811E-06
  0.49731049E-07 -0.19526949E-07 -0.87719881E-07 -0.15435636E-06 -0.21896306E-06
 -0.28108795E-06 -0.34030338E-06 -0.39620888E-06 -0.44843378E-06 -0.49663956E-06
 -0.54052188E-06 -0.57981242E-06 -0.61428039E-06 -0.64373370E-06 -0.66801988E-06
 -0.68702672E-06 -0.70068252E-06 -0.70895611E-06 -0.71185657E-06 -0.70943259E-06
 -0.70177164E-06 -0.68899875E-06 -0.67127519E-06 -0.64879672E-06 -0.62179174E-06
 -0.59051918E-06 -0.55526617E-06 -0.51634555E-06 -0.47409326E-06 -0.42886554E-06
 -0.38103601E-06 -0.33099274E-06 -0.27913515E-06 -0.22587096E-06 -0.17161302E-06
 -0.11677622E-06 -0.61774433E-07 -0.70174082E-08  0.47092154E-07  0.10016150E-06
  0.15181061E-06  0.20167481E-06  0.24940729E-06  0.29468144E-06  0.33719299E-06
  0.37666199E-06  0.41283453E-06  0.44548435E-06  0.47441409E-06  0.49945642E-06
  0.52047489E-06  0.53736452E-06  0.55005224E-06  0.55849695E-06  0.56268948E-06
  0.56265221E-06  0.55843854E-06  0.55013210E-06  0.53784573E-06  0.52172031E-06
  0.50192334E-06  0.47864741E-06  0.45210841E-06  0.42254368E-06  0.39021000E-06
  0.35538140E-06  0.31834699E-06  0.27940857E-06  0.23887829E-06  0.19707621E-06
  0.15432781E-06  0.11096157E-06  0.67306433E-07  0.23689454E-07 -0.19566653E-07
 -0.62145818E-07 -0.10374087E-06 -0.14405571E-06 -0.18280733E-06 -0.21972778E-06
 -0.25456592E-06 -0.28708912E-06 -0.31708471E-06 -0.34436131E-06 -0.36874999E-06
 -0.39010525E-06 -0.40830582E-06 -0.42325521E-06 -0.43488217E-06 -0.44314089E-06
 -0.44801103E-06 -0.44949756E-06 -0.44763042E-06 -0.44246400E-06 -0.43407641E-06
 -0.42256868E-06 -0.40806368E-06 -0.39070495E-06 -0.37065544E-06 -0.34809603E-06
 -0.32322399E-06 -0.29625131E-06 -0.26740299E-06 -0.23691522E-06 -0.20503346E-06
 atomic pseudo charge-density
  0.14000000E+02  0.13987486E+02  0.13950116E+02  0.13888396E+02  0.13803146E+02
  0.13695473E+02  0.13566727E+02  0.13418457E+02  0.13252360E+02  0.13070230E+02
  0.12873909E+02  0.12665244E+02  0.12446045E+02  0.12218055E+02  0.11982922E+02
  0.11742181E+02  0.11497243E+02  0.11249385E+02  0.10999750E+02  0.10749349E+02
  0.10499063E+02  0.10249656E+02  0.10001778E+02  0.97559742E+01  0.95127005E+01
  0.92723277E+01  0.90351535E+01  0.88014113E+01  0.85712784E+01  0.83448842E+01
  0.81223168E+01  0.79036299E+01  0.76888485E+01  0.74779737E+01  0.72709876E+01
  0.70678567E+01  0.68685361E+01  0.66729717E+01  0.64811033E+01  0.62928665E+01
  0.61081947E+01  0.59270205E+01  0.57492773E+01  0.55748996E+01  0.54038248E+01
  0.52359930E+01  0.50713480E+01  0.49098373E+01  0.47514126E+01  0.45960295E+01
  0.44436479E+01  0.42942318E+01  0.41477491E+01  0.40041712E+01  0.38634733E+01
  0.37256336E+01  0.35906336E+01  0.34584570E+01  0.33290901E+01  0.32025212E+01
  0.30787400E+01  0.29577379E+01  0.28395072E+01  0.27240408E+01  0.26113322E+01
  0.25013750E+01  0.23941629E+01  0.22896888E+01  0.21879456E+01  0.20889250E+01
  0.19926179E+01  0.18990140E+01  0.18081018E+01  0.17198683E+01  0.16342990E+01
  0.15513778E+01  0.14710866E+01  0.13934059E+01  0.13183142E+01  0.12457879E+01
  0.11758019E+01  0.11083288E+01  0.10433396E+01  0.98080327E+00  0.92068690E+00
  0.86295581E+00  0.80757352E+00  0.75450181E+00  0.70370082E+00  0.65512910E+00
  0.60874366E+00  0.56450009E+00  0.52235264E+00  0.48225430E+00  0.44415688E+00
  0.40801116E+00  0.37376692E+00  0.34137310E+00  0.31077790E+00  0.28192882E+00
  0.25477287E+00  0.22925657E+00  0.20532612E+00  0.18292751E+00  0.16200655E+00
  0.14250907E+00  0.12438093E+00  0.10756817E+00  0.92017101E-01  0.77674369E-01
  0.64487066E-01  0.52402808E-01  0.41369818E-01  0.31337005E-01  0.22254035E-01
  0.14071407E-01  0.67405142E-02  0.21371183E-03 -0.55556287E-02 -0.10613063E-01
 -0.15003026E-01 -0.18768783E-01 -0.21952391E-01 -0.24594660E-01 -0.26735122E-01
 -0.28411999E-01 -0.29662182E-01 -0.30521210E-01 -0.31023250E-01 -0.31201091E-01
 -0.31086129E-01 -0.30708368E-01 -0.30096414E-01 -0.29277481E-01 -0.28277396E-01
 -0.27120608E-01 -0.25830200E-01 -0.24427906E-01 -0.22934126E-01 -0.21367952E-01
 -0.19747187E-01 -0.18088372E-01 -0.16406817E-01 -0.14716627E-01 -0.13030738E-01
 -0.11360947E-01 -0.97179520E-02 -0.81113852E-02 -0.65498529E-02 -0.50409744E-02
 -0.35914221E-02 -0.22069628E-02 -0.89249885E-03  0.34788933E-03  0.15109011E-02
  0.25939727E-02  0.35952351E-02  0.45134709E-02  0.53480721E-02  0.60989982E-02
  0.67667345E-02  0.73522510E-02  0.78569620E-02  0.82826869E-02  0.86316109E-02
  0.89062473E-02  0.91094012E-02  0.92441333E-02  0.93137253E-02  0.93216474E-02
  0.92715254E-02  0.91671105E-02  0.90122502E-02  0.88108598E-02  0.85668968E-02
  0.82843350E-02  0.79671420E-02  0.76192565E-02  0.72445682E-02  0.68468985E-02
  0.64299834E-02  0.59974574E-02  0.55528388E-02  0.50995170E-02  0.46407403E-02
  0.41796065E-02  0.37190534E-02  0.32618515E-02  0.28105978E-02  0.23677109E-02
  0.19354274E-02  0.15157987E-02  0.11106905E-02  0.72178140E-03  0.35056435E-03
 -0.16523526E-05 -0.33374237E-03 -0.64475810E-03 -0.93392662E-03 -0.12006449E-02
 -0.14444743E-02 -0.16651347E-02 -0.18624977E-02 -0.20365798E-02 -0.21875348E-02
 -0.23156459E-02 -0.24213178E-02 -0.25050679E-02 -0.25675183E-02 -0.26093865E-02
 -0.26314768E-02 -0.26346715E-02 -0.26199221E-02 -0.25882403E-02 -0.25406891E-02
 -0.24783748E-02 -0.24024380E-02 -0.23140457E-02 -0.22143834E-02 -0.21046469E-02
 -0.19860354E-02 -0.18597443E-02 -0.17269583E-02 -0.15888450E-02 -0.14465492E-02
 -0.13011871E-02 -0.11538410E-02 -0.10055548E-02 -0.85732933E-03 -0.71011882E-03
 -0.56482712E-03 -0.42230476E-03 -0.28334637E-03 -0.14868844E-03 -0.19007588E-04
  0.10508082E-03  0.22302357E-03  0.33433021E-03  0.43857318E-03  0.53538763E-03
  0.62447091E-03  0.70558168E-03  0.77853872E-03  0.84321947E-03  0.89955825E-03
  0.94754429E-03  0.98721946E-03  0.10186758E-02  0.10420531E-02  0.10575355E-02
  0.10653494E-02  0.10657595E-02  0.10590663E-02  0.10456026E-02  0.10257300E-02
  0.99983565E-03  0.96832918E-03  0.93163889E-03  0.89020862E-03  0.84449441E-03
  0.79496122E-03  0.74207976E-03  0.68632342E-03  0.62816522E-03  0.56807496E-03
  0.50651651E-03  0.44394511E-03  0.38080499E-03  0.31752703E-03  0.25452662E-03
  0.19220168E-03  0.13093088E-03  0.71072064E-04  0.12960744E-04 -0.43091080E-04
 -0.96796002E-04 -0.14789208E-03 -0.19614351E-03 -0.24134116E-03 -0.28330288E-03
 -0.32187363E-03 -0.35692553E-03 -0.38835761E-03 -0.41609552E-03 -0.44009105E-03
 -0.46032148E-03 -0.47678880E-03 -0.48951892E-03 -0.49856057E-03 -0.50398427E-03
 -0.50588109E-03 -0.50436141E-03 -0.49955355E-03 -0.49160233E-03 -0.48066766E-03
 -0.46692295E-03 -0.45055364E-03 -0.43175559E-03 -0.41073352E-03 -0.38769942E-03
 -0.36287100E-03 -0.33647011E-03 -0.30872123E-03 -0.27984996E-03 -0.25008158E-03
 -0.21963965E-03 -0.18874464E-03 -0.15761268E-03 -0.12645431E-03 -0.95473357E-04
 -0.64865867E-04 -0.34819120E-04 -0.55107347E-05  0.22892138E-04  0.50233538E-04
  0.76369317E-04  0.10116767E-03  0.12450959E-03  0.14628920E-03  0.16641399E-03
  0.18480502E-03  0.20139698E-03  0.21613816E-03  0.22899035E-03  0.23992870E-03
  0.24894141E-03  0.25602947E-03  0.26120616E-03  0.26449669E-03  0.26593762E-03
  0.26557626E-03  0.26347012E-03  0.25968614E-03  0.25430006E-03  0.24739560E-03
  0.23906376E-03  0.22940196E-03  0.21851327E-03  0.20650557E-03  0.19349070E-03
  0.17958367E-03  0.16490180E-03  0.14956394E-03  0.13368962E-03  0.11739832E-03
  0.10080866E-03  0.84037711E-04  0.67200283E-04  0.50408242E-04  0.33769904E-04
  0.17389434E-04  0.13663081E-05 -0.14205185E-04 -0.29236399E-04 -0.43644731E-04
 -0.57353976E-04 -0.70294629E-04 -0.82404140E-04 -0.93627109E-04 -0.10391544E-03
 -0.11322845E-03 -0.12153290E-03 -0.12880300E-03 -0.13502038E-03 -0.14017399E-03
 -0.14425995E-03 -0.14728141E-03 -0.14924828E-03 -0.15017703E-03 -0.15009037E-03
 -0.14901695E-03 -0.14699099E-03 -0.14405193E-03 -0.14024401E-03 -0.13561588E-03
 -0.13022015E-03 -0.12411296E-03 -0.11735349E-03 -0.11000355E-03 -0.10212707E-03
 -0.93789630E-04 -0.85058047E-04 -0.75999856E-04 -0.66682888E-04 -0.57174822E-04
 -0.47542753E-04 -0.37852780E-04 -0.28169610E-04 -0.18556180E-04 -0.90733017E-05
  0.22067174E-06  0.92701535E-05  0.18022606E-04  0.26428795E-04  0.34443022E-04
  0.42023317E-04  0.49131614E-04  0.55733890E-04  0.61800278E-04  0.67305148E-04
  0.72227162E-04  0.76549298E-04  0.80258846E-04  0.83347378E-04  0.85810690E-04
  0.87648724E-04  0.88865454E-04  0.89468763E-04  0.89470290E-04  0.88885258E-04
  0.87732285E-04  0.86033182E-04  0.83812727E-04  0.81098432E-04  0.77920302E-04
  0.74310573E-04  0.70303454E-04  0.65934860E-04  0.61242135E-04  0.56263778E-04
  0.51039171E-04  0.45608303E-04  0.40011499E-04  0.34289157E-04  0.28481482E-04
  0.22628240E-04  0.16768513E-04  0.10940465E-04  0.51811218E-05 -0.47383777E-06
 -0.59902752E-05 -0.11335774E-04 -0.16479803E-04 -0.21393867E-04 -0.26051636E-04
 -0.30429066E-04 -0.34504490E-04 -0.38258702E-04 -0.41675022E-04 -0.44739338E-04
 -0.47440137E-04 -0.49768512E-04 -0.51718161E-04 -0.53285363E-04 -0.54468938E-04
 -0.55270198E-04 -0.55692877E-04 -0.55743049E-04 -0.55429038E-04 -0.54761307E-04
 -0.53752344E-04 -0.52416536E-04 -0.50770028E-04 -0.48830587E-04 -0.46617443E-04
 -0.44151138E-04 -0.41453364E-04 -0.38546798E-04 -0.35454933E-04 -0.32201914E-04
 -0.28812367E-04 -0.25311233E-04 -0.21723599E-04 -0.18074540E-04 -0.14388959E-04
 -0.10691428E-04 -0.70060473E-05 -0.33562968E-05  0.23509543E-06  0.37462817E-05
  0.71564132E-05  0.10445750E-04  0.13595760E-04  0.16589214E-04  0.19410259E-04
  0.22044494E-04  0.24479026E-04  0.26702520E-04  0.28705236E-04  0.30479054E-04
  0.32017494E-04  0.33315716E-04  0.34370519E-04  0.35180324E-04  0.35745148E-04
  0.36066572E-04  0.36147695E-04  0.35993082E-04  0.35608704E-04  0.35001869E-04
  0.34181152E-04  0.33156307E-04  0.31938185E-04  0.30538639E-04  0.28970431E-04
  0.27247132E-04  0.25383016E-04  0.23392957E-04  0.21292325E-04  0.19096874E-04
  0.16822637E-04  0.14485819E-04  0.12102693E-04  0.96894891E-05  0.72623012E-05
  0.48369827E-05  0.24290535E-05  0.53608228E-07 -0.22747701E-05 -0.45420921E-05
 -0.67350380E-05 -0.88410285E-05 -0.10848289E-04 -0.12745908E-04 -0.14523888E-04
 -0.16173191E-04 -0.17685778E-04 -0.19054637E-04 -0.20273808E-04 -0.21338400E-04
 -0.22244603E-04 -0.22989685E-04 -0.23571997E-04 -0.23990952E-04 -0.24247019E-04
 -0.24341688E-04 -0.24277451E-04 -0.24057762E-04 -0.23686996E-04 -0.23170408E-04
 -0.22514076E-04 -0.21724857E-04 -0.20810318E-04 -0.19778683E-04 -0.18638765E-04
 -0.17399899E-04 -0.16071877E-04 -0.14664872E-04 -0.13189371E-04 -0.11656103E-04
 -0.10075962E-04 -0.84599415E-05 -0.68190594E-05 -0.51642891E-05 -0.35064906E-05
 -0.18563445E-05 -0.22428750E-06  0.13795488E-05  0.29453965E-05  0.44639067E-05
  0.59262007E-05  0.73239177E-05  0.86492585E-05  0.98950245E-05  0.11054652E-04
  0.12122245E-04  0.13092596E-04  0.13961211E-04  0.14724322E-04  0.15378903E-04
  0.15922668E-04  0.16354081E-04  0.16672348E-04  0.16877409E-04  0.16969928E-04
  0.16951273E-04  0.16823499E-04  0.16589321E-04  0.16252084E-04  0.15815733E-04
  0.15284780E-04  0.14664259E-04  0.13959693E-04  0.13177045E-04  0.12322675E-04
  0.11403293E-04  0.10425910E-04  0.93977890E-05  0.83263950E-05  0.72193428E-05
  0.60843474E-05  0.49291730E-05  0.37615830E-05  0.25892905E-05  0.14199105E-05
  0.26091251E-06 -0.88042377E-06 -0.19970521E-05 -0.30822006E-05 -0.41294101E-05
 -0.51325703E-05 -0.60859531E-05 -0.69842426E-05 -0.78225622E-05 -0.85964989E-05
 -0.93021234E-05 -0.99360080E-05 -0.10495240E-04 -0.10977431E-04 -0.11380726E-04
 -0.11703806E-04 -0.11945885E-04 -0.12106710E-04 -0.12186555E-04 -0.12186206E-04
 -0.12106952E-04 -0.11950567E-04 -0.11719293E-04 -0.11415817E-04 -0.11043246E-04
 -0.10605080E-04 -0.10105189E-04 -0.95477738E-05 -0.89373425E-05 -0.82786709E-05
 -0.75767704E-05 -0.68368518E-05 -0.60642890E-05 -0.52645820E-05 -0.44433195E-05
 -0.36061423E-05 -0.27587057E-05 -0.19066436E-05 -0.10555326E-05 -0.21085695E-06
  0.62202510E-06  0.14379136E-05  0.22317980E-05  0.29988864E-05  0.37346328E-05
  0.44347627E-05  0.50952965E-05  0.57125703E-05  0.62832549E-05  0.68043722E-05
  0.72733086E-05  0.76878271E-05  0.80460749E-05  0.83465908E-05  0.85883076E-05
  0.87705540E-05  0.88930521E-05  0.89559142E-05  0.89596357E-05  0.89050861E-05
  0.87934985E-05  0.86264554E-05  0.84058740E-05  0.81339887E-05  0.78133317E-05
  0.74467127E-05  0.70371966E-05  0.65880796E-05  0.61028651E-05  0.55852377E-05
  0.50390369E-05  0.44682299E-05  0.38768845E-05  0.32691409E-05  0.26491843E-05
  0.20212171E-05  0.13894315E-05  0.75798268E-06  0.13096237E-06 -0.48762650E-06
 -0.10938944E-05 -0.16840887E-05 -0.22546159E-05 -0.28020624E-05 -0.33232141E-05
 -0.38150743E-05 -0.42748796E-05 -0.47001149E-05 -0.50885253E-05 -0.54381278E-05
 -0.57472193E-05 -0.60143843E-05 -0.62384993E-05 -0.64187362E-05 -0.65545633E-05
 -0.66457445E-05 -0.66923363E-05 -0.66946836E-05 -0.66534129E-05 -0.65694245E-05
 -0.64438827E-05 -0.62782043E-05 -0.60740459E-05 -0.58332896E-05 -0.55580278E-05
 -0.52505464E-05 -0.49133076E-05 -0.45489308E-05 -0.41601739E-05 -0.37499133E-05
 -0.33211236E-05 -0.28768569E-05 -0.24202218E-05 -0.19543628E-05 -0.14824391E-05
 -0.10076039E-05 -0.53298448E-06 -0.61661807E-07  0.40334843E-06  0.85911455E-06
  0.13028066E-05  0.17317134E-05  0.21432582E-05  0.25350135E-05  0.29047148E-05
  0.32502728E-05  0.35697845E-05  0.38615430E-05  0.41240453E-05  0.43559999E-05
  0.45563314E-05  0.47241849E-05  0.48589282E-05  0.49601529E-05  0.50276737E-05
  0.50615263E-05  0.50619646E-05  0.50294553E-05  0.49646725E-05  0.48684897E-05
  0.47419720E-05  0.45863661E-05  0.44030898E-05  0.41937204E-05  0.39599820E-05
  0.37037329E-05  0.34269509E-05  0.31317193E-05  0.28202119E-05  0.24946774E-05
  0.21574242E-05  0.18108041E-05  0.14571970E-05  0.10989948E-05  0.73858570E-06
  0.37833912E-06  0.20590332E-07 -0.33237404E-06 -0.67833013E-06 -0.10151304E-05
 -0.13407162E-05 -0.16531304E-05 -0.19505280E-05 -0.22311869E-05 -0.24935170E-05
 -0.27360691E-05 -0.29575417E-05 -0.31567880E-05 -0.33328206E-05 -0.34848160E-05
 -0.36121176E-05 -0.37142375E-05 -0.37908573E-05 -0.38418282E-05 -0.38671690E-05
 -0.38670642E-05 -0.38418600E-05 -0.37920605E-05 -0.37183216E-05 -0.36214452E-05
 -0.35023715E-05 -0.33621717E-05 -0.32020386E-05 -0.30232777E-05 -0.28272971E-05
 -0.26155968E-05 -0.23897584E-05 -0.21514329E-05 -0.19023298E-05 -0.16442052E-05
 -0.13788495E-05 -0.11080757E-05 -0.83370727E-06 -0.55756645E-06 -0.28146232E-06
 -0.71794671E-08  0.26353323E-06  0.52897336E-06  0.78749527E-06  0.10375199E-05
  0.12775442E-05  0.15061495E-05  0.17220095E-05  0.19238980E-05  0.21106948E-05
  0.22813922E-05  0.24350990E-05  0.25710459E-05  0.26885876E-05  0.27872061E-05
  0.28665121E-05  0.29262456E-05  0.29662762E-05  0.29866019E-05  0.29873475E-05
  0.29687623E-05  0.29312167E-05  0.28751981E-05  0.28013064E-05  0.27102488E-05
  0.26028335E-05  0.24799636E-05  0.23426296E-05  0.21919023E-05  0.20289247E-05
  0.18549039E-05  0.16711023E-05  0.14788289E-05  0.12794303E-05  0.10742817E-05
  0.86477751E-06  0.65232239E-06  0.43832194E-06  0.22417381E-06  0.11258799E-07
 -0.19906774E-06 -0.40548425E-06 -0.60671100E-06 -0.80151777E-06 -0.98873100E-06
 -0.11672407E-05 -0.13360066E-05 -0.14940641E-05 -0.16405292E-05 -0.17746035E-05
 -0.18955780E-05 -0.20028364E-05 -0.20958581E-05 -0.21742204E-05 -0.22375996E-05
 -0.22857721E-05 -0.23186147E-05 -0.23361038E-05 -0.23383146E-05 -0.23254192E-05
 -0.22976845E-05 -0.22554690E-05 -0.21992201E-05 -0.21294690E-05 -0.20468275E-05
 -0.19519823E-05 -0.18456898E-05 -0.17287710E-05 -0.16021048E-05 -0.14666218E-05
 -0.13232981E-05 -0.11731482E-05 -0.10172183E-05 -0.85657895E-06 -0.69231814E-06
 -0.52553410E-06 -0.35732818E-06 -0.18879774E-06 -0.21029280E-07  0.14490845E-06
  0.30797101E-06  0.46714464E-06  0.62145237E-06  0.76995985E-06  0.91178076E-06
  0.10460819E-05  0.11720881E-05  0.12890859E-05  0.13964282E-05  0.14935369E-05
  0.15799063E-05  0.16551051E-05  0.17187786E-05  0.17706498E-05  0.18105206E-05
  0.18382718E-05  0.18538634E-05  0.18573333E-05  0.18487970E-05  0.18284454E-05
  0.17965426E-05  0.17534241E-05  0.16994933E-05  0.16352180E-05  0.15611275E-05
  0.14778075E-05  0.13858967E-05  0.12860813E-05  0.11790908E-05  0.10656924E-05
  0.94668577E-06  0.82289778E-06  0.69517674E-06  0.56438682E-06  0.43140232E-06
  0.29710204E-06  0.16236354E-06  0.28057634E-07 -0.10495716E-06 -0.23583993E-06
 -0.36377259E-06 -0.48796482E-06 -0.60765881E-06 -0.72213382E-06 -0.83071029E-06
 -0.93275381E-06 -0.10276787E-05 -0.11149511E-05 -0.11940921E-05 -0.12646798E-05
 -0.13263520E-05 -0.13788073E-05 -0.14218066E-05 -0.14551742E-05 -0.14787978E-05
 -0.14926290E-05 -0.14966827E-05 -0.14910364E-05 -0.14758289E-05 -0.14512592E-05
 -0.14175840E-05 -0.13751159E-05 -0.13242209E-05 -0.12653150E-05 -0.11988614E-05
 -0.11253671E-05 -0.10453788E-05 -0.95947956E-06 -0.86828420E-06 -0.77243527E-06
 -0.67259860E-06 -0.56945881E-06 -0.46371470E-06 -0.35607464E-06 -0.24725195E-06
 -0.13796023E-06 -0.28908843E-07  0.79201668E-07  0.18568393E-06  0.28986804E-06
  0.39110569E-06  0.48877410E-06  0.58227978E-06  0.67106203E-06  0.75459624E-06
  0.83239684E-06  0.90402012E-06  0.96906659E-06  0.10271831E-05  0.10780648E-05
  0.11214564E-05  0.11571533E-05  0.11850029E-05  0.12049044E-05  0.12168092E-05
  0.12207210E-05  0.12166947E-05  0.12048360E-05  0.11853001E-05  0.11582901E-05
  0.11240552E-05  0.10828889E-05  0.10351265E-05  0.98114232E-06  0.92134745E-06
  0.85618624E-06  0.78613334E-06  0.71169032E-06  0.63338211E-06  0.55175350E-06
  0.46736531E-06  0.38079071E-06  0.29261137E-06  0.20341361E-06  0.11378459E-06
  0.24308532E-07 -0.64437077E-07 -0.15188510E-06 -0.23748232E-06 -0.32069291E-06
 -0.40100166E-06 -0.47791718E-06 -0.55097480E-06 -0.61973933E-06 -0.68380755E-06
 -0.74281060E-06 -0.79641591E-06 -0.84432912E-06 -0.88629552E-06 -0.92210138E-06
 -0.95157489E-06 -0.97458693E-06 -0.99105142E-06 -0.10009255E-05 -0.10042095E-05
 -0.10009462E-05 -0.99122066E-06 -0.97515868E-06 -0.95292605E-06 -0.92472689E-06
   16.2516435017787      T
 Non local Part
           2           2   1.23923386443745     
   45.3518886862207       -26.8715112214905       -26.8715112214905     
   14.7508844230629     
 Reciprocal Space Part
  0.00000000E+00  0.26221540E-02  0.10552381E-01  0.23982054E-01  0.43230313E-01
  0.68744045E-01  0.10109732E+00  0.14098976E+00  0.18924320E+00  0.24679605E+00
  0.31469459E+00  0.39408059E+00  0.48617471E+00  0.59225507E+00  0.71363087E+00
  0.85161080E+00  0.10074663E+01  0.11823905E+01  0.13774521E+01  0.15935474E+01
  0.18313489E+01  0.20912535E+01  0.23733317E+01  0.26772788E+01  0.30023702E+01
  0.33474224E+01  0.37107628E+01  0.40902073E+01  0.44830502E+01  0.48860656E+01
  0.52955228E+01  0.57072153E+01  0.61165043E+01  0.65183772E+01  0.69075190E+01
  0.72783974E+01  0.76253590E+01  0.79427359E+01  0.82249587E+01  0.84666756E+01
  0.86628731E+01  0.88089960E+01  0.89010634E+01  0.89357773E+01  0.89106211E+01
  0.88239451E+01  0.86750352E+01  0.84641639E+01  0.81926205E+01  0.78627194E+01
  0.74777861E+01  0.70421187E+01  0.65609281E+01  0.60402548E+01  0.54868654E+01
  0.49081309E+01  0.43118884E+01  0.37062907E+01  0.30996460E+01  0.25002516E+01
  0.19162276E+01  0.13553509E+01  0.82489781E+00  0.33149625E+00 -0.11900770E+00
 -0.52166520E+00 -0.87251960E+00 -0.11686783E+01 -0.14083595E+01 -0.15909135E+01
 -0.17168165E+01 -0.17876388E+01 -0.18059877E+01 -0.17754257E+01 -0.17003684E+01
 -0.15859623E+01 -0.14379480E+01 -0.12625112E+01 -0.10661260E+01 -0.85539430E+00
 -0.63688561E+00 -0.41698187E+00 -0.20173052E+00  0.32899461E-02  0.19308886E+00
  0.36336377E+00  0.51058014E+00  0.63202857E+00  0.72585864E+00  0.79108889E+00
  0.82759332E+00  0.83606546E+00  0.81796135E+00  0.77542383E+00  0.71119061E+00
  0.62848920E+00  0.53092203E+00  0.42234534E+00  0.30674537E+00  0.18811563E+00
 Real Space Part
  0.00000000E+00  0.37968183E-01  0.15165195E+00  0.34039002E+00  0.60308381E+00
  0.93820277E+00  0.13437918E+01  0.18174806E+01  0.23564954E+01  0.29576723E+01
  0.36174728E+01  0.43320008E+01  0.50970221E+01  0.59079847E+01  0.67600417E+01
  0.76480749E+01  0.85667205E+01  0.95103959E+01  0.10473327E+02  0.11449580E+02
  0.12433087E+02  0.13417682E+02  0.14397130E+02  0.15365161E+02  0.16315502E+02
  0.17241914E+02  0.18138221E+02  0.18998350E+02  0.19816361E+02  0.20586485E+02
  0.21303155E+02  0.21961044E+02  0.22555094E+02  0.23080556E+02  0.23533015E+02
  0.23908427E+02  0.24203149E+02  0.24413967E+02  0.24538125E+02  0.24573356E+02
  0.24517902E+02  0.24370541E+02  0.24130607E+02  0.23798011E+02  0.23373258E+02
  0.22857461E+02  0.22252351E+02  0.21560286E+02  0.20784258E+02  0.19927889E+02
  0.18995431E+02  0.17991757E+02  0.16922346E+02  0.15793270E+02  0.14611166E+02
  0.13383209E+02  0.12117077E+02  0.10820909E+02  0.95032585E+01  0.81730414E+01
  0.68394730E+01  0.55120038E+01  0.42002472E+01  0.29139013E+01  0.16626664E+01
  0.45615655E+00 -0.69619176E+00 -0.17852148E+01 -0.28021185E+01 -0.37385773E+01
 -0.45868320E+01 -0.53397868E+01 -0.59911037E+01 -0.65352930E+01 -0.69677972E+01
 -0.72850695E+01 -0.74846431E+01 -0.75651909E+01 -0.75265745E+01 -0.73698820E+01
 -0.70974523E+01 -0.67128862E+01 -0.62210444E+01 -0.56280310E+01 -0.49411634E+01
 -0.41689274E+01 -0.33209203E+01 -0.24077820E+01 -0.14411143E+01 -0.43338814E+00
  0.60214757E+00  0.16515194E+01  0.27005509E+01  0.37413845E+01  0.47826756E+01
  0.47397636E+01  0.35626356E+01  0.21814218E+01  0.50263135E+00  0.00000000E+00
 Reciprocal Space Part
  0.00000000E+00  0.25869208E-01  0.10296014E+00  0.22973020E+00  0.40363316E+00
  0.62115620E+00  0.87787139E+00  0.11685012E+01  0.14869977E+01  0.18266344E+01
  0.21801106E+01  0.25396663E+01  0.28972076E+01  0.32444400E+01  0.35730086E+01
  0.38746437E+01  0.41413089E+01  0.43653499E+01  0.45396414E+01  0.46577299E+01
  0.47139693E+01  0.47036462E+01  0.46230935E+01  0.44697884E+01  0.42424320E+01
  0.39410103E+01  0.35668318E+01  0.31225417E+01  0.26121117E+01  0.20408031E+01
  0.14151042E+01  0.74264181E+00  0.32068036E-01 -0.70707664E+00 -0.14645216E+01
 -0.22294429E+01 -0.29906559E+01 -0.37368195E+01 -0.44566483E+01 -0.51391286E+01
 -0.57737324E+01 -0.63506262E+01 -0.68608690E+01 -0.72965951E+01 -0.76511773E+01
 -0.79193663E+01 -0.80974033E+01 -0.81831024E+01 -0.81759006E+01 -0.80768737E+01
 -0.78887177E+01 -0.76156951E+01 -0.72635481E+01 -0.68393791E+01 -0.63515017E+01
 -0.58092659E+01 -0.52228603E+01 -0.46030973E+01 -0.39611848E+01 -0.33084907E+01
 -0.26563057E+01 -0.20156097E+01 -0.13968471E+01 -0.80971695E+00 -0.26298276E+00
  0.23569430E+00  0.67989408E+00  0.10645455E+01  0.13860015E+01  0.16420791E+01
  0.18320649E+01  0.19566854E+01  0.20180440E+01  0.20195264E+01  0.19656777E+01
  0.18620547E+01  0.17150569E+01  0.15317424E+01  0.13196322E+01  0.10865089E+01
  0.84021529E+00  0.58845742E+00  0.33861802E+00  0.97584126E-01 -0.12840649E+00
 -0.33389652E+00 -0.51431520E+00 -0.66605701E+00 -0.78653172E+00 -0.87418526E+00
 -0.92849163E+00 -0.94991714E+00 -0.93985862E+00 -0.90055829E+00 -0.83499843E+00
 -0.74677935E+00 -0.63998483E+00 -0.51903917E+00 -0.38856031E+00 -0.25321336E+00
 Real Space Part
  0.00000000E+00 -0.33824216E-01 -0.13507772E+00 -0.30310424E+00 -0.53681371E+00
 -0.83468797E+00 -0.11947886E+01 -0.16147668E+01 -0.20918760E+01 -0.26229856E+01
 -0.32045977E+01 -0.38328651E+01 -0.45036118E+01 -0.52123545E+01 -0.59543270E+01
 -0.67245049E+01 -0.75176329E+01 -0.83282529E+01 -0.91507337E+01 -0.99793017E+01
 -0.10808073E+02 -0.11631086E+02 -0.12442335E+02 -0.13235805E+02 -0.14005506E+02
 -0.14745510E+02 -0.15449983E+02 -0.16113226E+02 -0.16729707E+02 -0.17294096E+02
 -0.17801306E+02 -0.18246522E+02 -0.18625238E+02 -0.18933292E+02 -0.19166896E+02
 -0.19322671E+02 -0.19397674E+02 -0.19389433E+02 -0.19295968E+02 -0.19115822E+02
 -0.18848080E+02 -0.18492398E+02 -0.18049014E+02 -0.17518769E+02 -0.16903122E+02
 -0.16204157E+02 -0.15424590E+02 -0.14567776E+02 -0.13637701E+02 -0.12638984E+02
 -0.11576864E+02 -0.10457182E+02 -0.92863632E+01 -0.80713928E+01 -0.68197804E+01
 -0.55395244E+01 -0.42390671E+01 -0.29272450E+01 -0.16132315E+01 -0.30647414E+00
  0.98337453E+00  0.22465324E+01  0.34731682E+01  0.46534880E+01  0.57778251E+01
  0.68367351E+01  0.78210929E+01  0.87221924E+01  0.95318467E+01  0.10242489E+02
  0.10847269E+02  0.11340152E+02  0.11716008E+02  0.11970697E+02  0.12101147E+02
  0.12105427E+02  0.11982801E+02  0.11733780E+02  0.11360158E+02  0.10865036E+02
  0.10252825E+02  0.95292511E+01  0.87013264E+01  0.77773213E+01  0.67667141E+01
  0.56801290E+01  0.45292614E+01  0.33267927E+01  0.20862925E+01  0.82211183E+00
 -0.45072221E+00 -0.17165654E+01 -0.29597388E+01 -0.41718296E+01 -0.53631075E+01
 -0.53199549E+01 -0.40003806E+01 -0.24504152E+01 -0.56479551E+00  0.00000000E+00
 Non local Part
           0           2   1.23923386443745     
   6.28509745652908        7.87933731073598        7.87933731073598     
   9.88149493070311     
 Reciprocal Space Part
  0.62008775E+02  0.61570810E+02  0.60263551E+02  0.58106796E+02  0.55133149E+02
  0.51387434E+02  0.46925906E+02  0.41815248E+02  0.36131395E+02  0.29958200E+02
  0.23385973E+02  0.16509912E+02  0.94284678E+01  0.22416725E+01 -0.49505430E+01
 -0.12050003E+02 -0.18961884E+02 -0.25596224E+02 -0.31869324E+02 -0.37704996E+02
 -0.43035668E+02 -0.47803298E+02 -0.51960097E+02 -0.55469057E+02 -0.58304258E+02
 -0.60450980E+02 -0.61905597E+02 -0.62675277E+02 -0.62777495E+02 -0.62239371E+02
 -0.61096851E+02 -0.59393756E+02 -0.57180719E+02 -0.54514031E+02 -0.51454430E+02
 -0.48065849E+02 -0.44414159E+02 -0.40565922E+02 -0.36587190E+02 -0.32542361E+02
 -0.28493121E+02 -0.24497482E+02 -0.20608944E+02 -0.16875778E+02 -0.13340446E+02
 -0.10039169E+02 -0.70016331E+01 -0.42508478E+01 -0.18031357E+01  0.33173842E+00
  0.21503165E+01  0.36550839E+01  0.48540068E+01  0.57599866E+01  0.63902467E+01
  0.67656693E+01  0.69100982E+01  0.68496265E+01  0.66118845E+01  0.62253436E+01
  0.57186513E+01  0.51200093E+01  0.44566069E+01  0.37541186E+01  0.30362727E+01
  0.23244977E+01  0.16376469E+01  0.99180543E+00  0.40017568E+00 -0.12695943E+00
 -0.58220131E+00 -0.96093401E+00 -0.12611635E+01 -0.14833062E+01 -0.16299356E+01
 -0.17054963E+01 -0.17159960E+01 -0.16686834E+01 -0.15717228E+01 -0.14338735E+01
 -0.12641812E+01 -0.10716907E+01 -0.86518337E+00 -0.65294601E+00 -0.44257469E+00
 -0.24081556E+00 -0.53444554E-01  0.11481405E+00  0.26033097E+00  0.38057909E+00
  0.47410717E+00  0.54048360E+00  0.58021418E+00  0.59463868E+00  0.58581063E+00
  0.55636561E+00  0.50938274E+00  0.44824414E+00  0.37649688E+00  0.29772139E+00
 Real Space Part
 -0.20976228E+03 -0.20964939E+03 -0.20931084E+03 -0.20874700E+03 -0.20795849E+03
 -0.20694618E+03 -0.20571118E+03 -0.20425488E+03 -0.20257891E+03 -0.20068518E+03
 -0.19857585E+03 -0.19625337E+03 -0.19372048E+03 -0.19098020E+03 -0.18803585E+03
 -0.18489106E+03 -0.18154977E+03 -0.17801626E+03 -0.17429514E+03 -0.17039134E+03
 -0.16631020E+03 -0.16205737E+03 -0.15763891E+03 -0.15306126E+03 -0.14833126E+03
 -0.14345616E+03 -0.13844361E+03 -0.13330172E+03 -0.12803899E+03 -0.12266440E+03
 -0.11718735E+03 -0.11161770E+03 -0.10596577E+03 -0.10024232E+03 -0.94458564E+02
 -0.88626167E+02 -0.82757227E+02 -0.76864270E+02 -0.70960233E+02 -0.65058450E+02
 -0.59172621E+02 -0.53316791E+02 -0.47505313E+02 -0.41752812E+02 -0.36074140E+02
 -0.30484326E+02 -0.24998517E+02 -0.19631920E+02 -0.14399730E+02 -0.93170538E+01
 -0.43988280E+01  0.34026968E+00  0.48859158E+01  0.92242417E+01  0.13341939E+02
  0.17226371E+02  0.20865685E+02  0.24248930E+02  0.27366173E+02  0.30208617E+02
  0.32768720E+02  0.35040301E+02  0.37018654E+02  0.38700644E+02  0.40084801E+02
  0.41171398E+02  0.41962518E+02  0.42462106E+02  0.42676002E+02  0.42611959E+02
  0.42279635E+02  0.41690567E+02  0.40858123E+02  0.39797429E+02  0.38525271E+02
  0.37059982E+02  0.35421296E+02  0.33630187E+02  0.31708693E+02  0.29679712E+02
  0.27566796E+02  0.25393923E+02  0.23185270E+02  0.20964972E+02  0.18756885E+02
  0.16584355E+02  0.14469982E+02  0.12435404E+02  0.10501088E+02  0.86861364E+01
  0.70081149E+01  0.54828948E+01  0.41245218E+01  0.29451092E+01  0.19547466E+01
  0.11614417E+01  0.57106440E+00  0.18749676E+00  0.13888100E-01  0.00000000E+00
 Reciprocal Space Part
 -0.42933829E+02 -0.42600099E+02 -0.41604032E+02 -0.39960900E+02 -0.37695850E+02
 -0.34843459E+02 -0.31447109E+02 -0.27558221E+02 -0.23235335E+02 -0.18543085E+02
 -0.13551057E+02 -0.83325815E+01 -0.29634664E+01  0.24793017E+01  0.79188562E+01
  0.13279731E+02  0.18489097E+02  0.23477926E+02  0.28182076E+02  0.32543254E+02
  0.36509866E+02  0.40037722E+02  0.43090592E+02  0.45640604E+02  0.47668483E+02
  0.49163626E+02  0.50124016E+02  0.50555980E+02  0.50473807E+02  0.49899227E+02
  0.48860772E+02  0.47393030E+02  0.45535817E+02  0.43333277E+02  0.40832940E+02
  0.38084744E+02  0.35140064E+02  0.32050739E+02  0.28868140E+02  0.25642284E+02
  0.22421015E+02  0.19249259E+02  0.16168376E+02  0.13215610E+02  0.10423642E+02
  0.78202584E+01  0.54281334E+01  0.32647192E+01  0.13422485E+01 -0.33215985E+00
 -0.17562994E+01 -0.29325871E+01 -0.38676978E+01 -0.45721345E+01 -0.50597463E+01
 -0.53472076E+01 -0.54534725E+01 -0.53992171E+01 -0.52062824E+01 -0.48971312E+01
 -0.44943291E+01 -0.40200598E+01 -0.34956840E+01 -0.29413492E+01 -0.23756547E+01
 -0.18153776E+01 -0.12752609E+01 -0.76786500E+00 -0.30348144E+00  0.10989321E+00
  0.46652699E+00  0.76287046E+00  0.99742861E+00  0.11705932E+01  0.12844426E+01
  0.13425169E+01  0.13495749E+01  0.13113413E+01  0.12342516E+01  0.11252002E+01
  0.99129919E+00  0.83965304E+00  0.67715335E+00  0.51029847E+00  0.34504024E+00
  0.18666003E+00  0.39675243E-01 -0.92223736E-01 -0.20620675E+00 -0.30030874E+00
 -0.37340845E+00 -0.42518373E+00 -0.45604659E+00 -0.46706156E+00 -0.45985126E+00
 -0.43649277E+00 -0.39940895E+00 -0.35125817E+00 -0.29482606E+00 -0.23292247E+00
 Real Space Part
  0.16969350E+03  0.16960339E+03  0.16933317E+03  0.16888314E+03  0.16825378E+03
  0.16744578E+03  0.16646004E+03  0.16529765E+03  0.16395993E+03  0.16244837E+03
  0.16076471E+03  0.15891090E+03  0.15688911E+03  0.15470175E+03  0.15235146E+03
  0.14984112E+03  0.14717388E+03  0.14435313E+03  0.14138252E+03  0.13826601E+03
  0.13500781E+03  0.13161242E+03  0.12808466E+03  0.12442965E+03  0.12065281E+03
  0.11675990E+03  0.11275701E+03  0.10865056E+03  0.10444731E+03  0.10015439E+03
  0.95779251E+02  0.91329730E+02  0.86814008E+02  0.82240627E+02  0.77618486E+02
  0.72956837E+02  0.68265277E+02  0.63553746E+02  0.58832506E+02  0.54112132E+02
  0.49403494E+02  0.44717732E+02  0.40066233E+02  0.35460599E+02  0.30912612E+02
  0.26434196E+02  0.22037371E+02  0.17734205E+02  0.13536758E+02  0.94570243E+01
  0.55068631E+01  0.16979326E+01 -0.19583865E+01 -0.54510706E+01 -0.87695367E+01
 -0.11903729E+02 -0.14844210E+02 -0.17582251E+02 -0.20109925E+02 -0.22420201E+02
 -0.24507035E+02 -0.26365459E+02 -0.27991665E+02 -0.29383087E+02 -0.30538471E+02
 -0.31457938E+02 -0.32143040E+02 -0.32596799E+02 -0.32823732E+02 -0.32829869E+02
 -0.32622747E+02 -0.32211386E+02 -0.31606257E+02 -0.30819221E+02 -0.29863456E+02
 -0.28753362E+02 -0.27504453E+02 -0.26133229E+02 -0.24657035E+02 -0.23093900E+02
 -0.21462381E+02 -0.19781376E+02 -0.18069948E+02 -0.16347136E+02 -0.14631770E+02
 -0.12942280E+02 -0.11296523E+02 -0.97115999E+01 -0.82036980E+01 -0.67879356E+01
 -0.54782255E+01 -0.42871513E+01 -0.32258627E+01 -0.23039909E+01 -0.15295762E+01
 -0.90902107E+00 -0.44704637E+00 -0.14680728E+00 -0.10875810E-01  0.00000000E+00
 Non local Part
           1           2   1.23923386443745     
   1.64592502196980        2.94892529863462        2.94892529863462     
   5.33457775554648     
 Reciprocal Space Part
  0.00000000E+00  0.25302375E+01  0.50032990E+01  0.73631347E+01  0.95559243E+01
  0.11531133E+02  0.13242498E+02  0.14648932E+02  0.15715309E+02  0.16413135E+02
  0.16721079E+02  0.16625361E+02  0.16119974E+02  0.15206764E+02  0.13895341E+02
  0.12202837E+02  0.10153519E+02  0.77782578E+01  0.51138774E+01  0.22023850E+01
 -0.90988732E+00 -0.41732181E+01 -0.75354858E+01 -0.10943191E+02 -0.14342492E+02
 -0.17680226E+02 -0.20904900E+02 -0.23967636E+02 -0.26823036E+02 -0.29429969E+02
 -0.31752252E+02 -0.33759216E+02 -0.35426158E+02 -0.36734650E+02 -0.37672732E+02
 -0.38234958E+02 -0.38422315E+02 -0.38242026E+02 -0.37707217E+02 -0.36836495E+02
 -0.35653419E+02 -0.34185893E+02 -0.32465493E+02 -0.30526746E+02 -0.28406371E+02
 -0.26142510E+02 -0.23773958E+02 -0.21339410E+02 -0.18876740E+02 -0.16422328E+02
 -0.14010449E+02 -0.11672728E+02 -0.94376720E+01 -0.73302983E+01 -0.53718397E+01
 -0.35795500E+01 -0.19665998E+01 -0.54206191E+00  0.68901602E+00  0.17254589E+01
  0.25697385E+01  0.32276828E+01  0.37081316E+01  0.40225480E+01  0.41845962E+01
  0.42096989E+01  0.41145842E+01  0.39168326E+01  0.36344362E+01  0.32853775E+01
  0.28872378E+01  0.24568425E+01  0.20099485E+01  0.15609793E+01  0.11228106E+01
  0.70660856E+00  0.32172097E+00 -0.24379668E-01 -0.32610281E+00 -0.57970008E+00
 -0.78318296E+00 -0.93620309E+00 -0.10399008E+01 -0.10967284E+01 -0.11102536E+01
 -0.10849512E+01 -0.10259882E+01 -0.93900826E+00 -0.82992266E+00 -0.70471167E+00
 -0.56924139E+00 -0.42909989E+00 -0.28945557E+00 -0.15494010E+00 -0.29557205E-01
  0.83382103E-01  0.18129804E+00  0.26235530E+00  0.32545259E+00  0.37019072E+00
 Real Space Part
  0.00000000E+00 -0.56155722E+01 -0.11213018E+02 -0.16774264E+02 -0.22281346E+02
 -0.27716462E+02 -0.33062026E+02 -0.38300722E+02 -0.43415556E+02 -0.48389911E+02
 -0.53207597E+02 -0.57852905E+02 -0.62310660E+02 -0.66566268E+02 -0.70605768E+02
 -0.74415882E+02 -0.77984066E+02 -0.81298550E+02 -0.84348395E+02 -0.87123529E+02
 -0.89614798E+02 -0.91814006E+02 -0.93713956E+02 -0.95308493E+02 -0.96592537E+02
 -0.97562122E+02 -0.98214431E+02 -0.98547823E+02 -0.98561868E+02 -0.98257366E+02
 -0.97636373E+02 -0.96702223E+02 -0.95459537E+02 -0.93914239E+02 -0.92073563E+02
 -0.89946050E+02 -0.87541551E+02 -0.84871213E+02 -0.81947463E+02 -0.78783991E+02
 -0.75395715E+02 -0.71798747E+02 -0.68010345E+02 -0.64048862E+02 -0.59933680E+02
 -0.55685141E+02 -0.51324460E+02 -0.46873634E+02 -0.42355342E+02 -0.37792825E+02
 -0.33209765E+02 -0.28630153E+02 -0.24078137E+02 -0.19577872E+02 -0.15153357E+02
 -0.10828258E+02 -0.66257336E+01 -0.25682463E+01  0.13226240E+01  0.50263725E+01
  0.85237620E+01  0.11797011E+02  0.14829982E+02  0.17608353E+02  0.20119792E+02
  0.22354107E+02  0.24303385E+02  0.25962111E+02  0.27327263E+02  0.28398387E+02
  0.29177637E+02  0.29669792E+02  0.29882240E+02  0.29824929E+02  0.29510282E+02
  0.28953083E+02  0.28170331E+02  0.27181057E+02  0.26006116E+02  0.24667949E+02
  0.23190327E+02  0.21598065E+02  0.19916730E+02  0.18172331E+02  0.16391004E+02
  0.14598696E+02  0.12820854E+02  0.11082120E+02  0.94060372E+01  0.78147770E+01
  0.63288877E+01  0.49670636E+01  0.37459458E+01  0.26799539E+01  0.17811412E+01
  0.10590928E+01  0.52083857E+00  0.17092538E+00  0.12187434E-01  0.00000000E+00
 Reciprocal Space Part
  0.00000000E+00 -0.11247832E+01 -0.22201612E+01 -0.32573256E+01 -0.42086490E+01
 -0.50482437E+01 -0.57524846E+01 -0.63004837E+01 -0.66745073E+01 -0.68603271E+01
 -0.68474975E+01 -0.66295551E+01 -0.62041347E+01 -0.55730012E+01 -0.47419977E+01
 -0.37209095E+01 -0.25232501E+01 -0.11659728E+01  0.33088496E+00  0.19446160E+01
  0.36503072E+01  0.54213430E+01  0.72299366E+01  0.90476778E+01  0.10846086E+02
  0.12597156E+02  0.14273887E+02  0.15850779E+02  0.17304295E+02  0.18613274E+02
  0.19759287E+02  0.20726929E+02  0.21504055E+02  0.22081931E+02  0.22455323E+02
  0.22622514E+02  0.22585244E+02  0.22348594E+02  0.21920790E+02  0.21312968E+02
  0.20538877E+02  0.19614540E+02  0.18557884E+02  0.17388344E+02  0.16126443E+02
  0.14793381E+02  0.13410606E+02  0.11999411E+02  0.10580546E+02  0.91738526E+01
  0.77979358E+01  0.64698759E+01  0.52049813E+01  0.40165904E+01  0.29159221E+01
  0.19119780E+01  0.10114939E+01  0.21894168E+00 -0.46342283E+00 -0.10354676E+01
 -0.14990532E+01 -0.18578664E+01 -0.21172256E+01 -0.22838617E+01 -0.23656828E+01
 -0.23715277E+01 -0.23109143E+01 -0.21937900E+01 -0.20302882E+01 -0.18304972E+01
 -0.16042465E+01 -0.13609125E+01 -0.11092494E+01 -0.85724568E+00 -0.61200972E+00
 -0.37968354E+00 -0.16538661E+00  0.26811940E-01  0.19389354E+00  0.33386485E+00
  0.44570911E+00  0.52931725E+00  0.58540165E+00  0.61539623E+00  0.62134629E+00
  0.60579168E+00  0.57164698E+00  0.52208183E+00  0.46040489E+00  0.38995393E+00
  0.31399479E+00  0.23563123E+00  0.15772722E+00  0.82842996E-01  0.13185538E-01
 -0.49426297E-01 -0.10358205E+00 -0.14828597E+00 -0.18295025E+00 -0.20737640E+00
 Real Space Part
  0.00000000E+00  0.32968910E+01  0.65833408E+01  0.98489391E+01  0.13083337E+02
  0.16276279E+02  0.19417633E+02  0.22497420E+02  0.25505845E+02  0.28433329E+02
  0.31270537E+02  0.34008408E+02  0.36638184E+02  0.39151443E+02  0.41540120E+02
  0.43796543E+02  0.45913455E+02  0.47884047E+02  0.49701978E+02  0.51361406E+02
  0.52857011E+02  0.54184021E+02  0.55338233E+02  0.56316039E+02  0.57114446E+02
  0.57731096E+02  0.58164286E+02  0.58412987E+02  0.58476859E+02  0.58356265E+02
  0.58052287E+02  0.57566734E+02  0.56902153E+02  0.56061836E+02  0.55049820E+02
  0.53870893E+02  0.52530591E+02  0.51035192E+02  0.49391708E+02  0.47607871E+02
  0.45692121E+02  0.43653580E+02  0.41502032E+02  0.39247886E+02  0.36902148E+02
  0.34476375E+02  0.31982630E+02  0.29433431E+02  0.26841692E+02  0.24220658E+02
  0.21583836E+02  0.18944918E+02  0.16317701E+02  0.13715998E+02  0.11153545E+02
  0.86439045E+01  0.62003640E+01  0.38358310E+01  0.15627260E+01 -0.60712634E+00
 -0.26626062E+01 -0.45934060E+01 -0.63901365E+01 -0.80444274E+01 -0.95490232E+01
 -0.10897872E+02 -0.12086203E+02 -0.13110599E+02 -0.13969048E+02 -0.14660987E+02
 -0.15187330E+02 -0.15550476E+02 -0.15754305E+02 -0.15804147E+02 -0.15706744E+02
 -0.15470181E+02 -0.15103807E+02 -0.14618135E+02 -0.14024725E+02 -0.13336053E+02
 -0.12565365E+02 -0.11726520E+02 -0.10833824E+02 -0.99018555E+01 -0.89452921E+01
 -0.79787289E+01 -0.70165038E+01 -0.60725254E+01 -0.51601077E+01 -0.42918151E+01
 -0.34793189E+01 -0.27332672E+01 -0.20631703E+01 -0.14773050E+01 -0.98263132E+00
 -0.58473318E+00 -0.28776776E+00 -0.94503098E-01 -0.67413025E-02  0.00000000E+00
 PAW radial sets
         427  0.991149070368299     
(5E20.12)                                
 augmentation charges (non sperical)
  0.909416913695E+00 -0.420199640111E+00 -0.737062017737E-01 -0.908108429766E-01 -0.681363715440E-01
 -0.111505013615E+00 -0.420199640111E+00  0.172183780354E+00 -0.377234284952E-01 -0.480577119540E-01
 -0.369826318127E-02 -0.955008648683E-02 -0.737062017737E-01 -0.377234284952E-01 -0.305215754665E+00
 -0.390005050416E+00 -0.123930954058E+00 -0.225881091648E+00 -0.908108429766E-01 -0.480577119540E-01
 -0.390005050416E+00 -0.498647443445E+00 -0.157169040777E+00 -0.286910723924E+00 -0.681363715440E-01
 -0.369826318127E-02 -0.123930954058E+00 -0.157169040777E+00 -0.509129830843E-01 -0.911174170034E-01
 -0.111505013615E+00 -0.955008648683E-02 -0.225881091648E+00 -0.286910723924E+00 -0.911174170034E-01
 -0.163636895756E+00
 uccopancies in atom
  0.199999999907E+01  0.000000000000E+00  0.000000000000E+00  0.000000000000E+00  0.000000000000E+00
  0.000000000000E+00  0.000000000000E+00  0.000000000000E+00  0.000000000000E+00  0.000000000000E+00
  0.000000000000E+00  0.000000000000E+00  0.000000000000E+00  0.000000000000E+00  0.200000000207E+01
  0.000000000000E+00  0.000000000000E+00  0.000000000000E+00  0.000000000000E+00  0.000000000000E+00
  0.000000000000E+00  0.000000000000E+00  0.000000000000E+00  0.000000000000E+00  0.000000000000E+00
  0.000000000000E+00  0.000000000000E+00  0.000000000000E+00  0.666666667727E+00  0.000000000000E+00
  0.000000000000E+00  0.000000000000E+00  0.000000000000E+00  0.000000000000E+00  0.000000000000E+00
  0.000000000000E+00
 grid
  0.487458578271E-04  0.500632343233E-04  0.514162134514E-04  0.528057573869E-04  0.542328543084E-04
  0.556985191007E-04  0.572037940760E-04  0.587497497154E-04  0.603374854304E-04  0.619681303444E-04
  0.636428440959E-04  0.653628176628E-04  0.671292742101E-04  0.689434699591E-04  0.708066950809E-04
  0.727202746142E-04  0.746855694073E-04  0.767039770860E-04  0.787769330474E-04  0.809059114809E-04
  0.830924264165E-04  0.853380328013E-04  0.876443276057E-04  0.900129509587E-04  0.924455873145E-04
  0.949439666503E-04  0.975098656968E-04  0.100145109201E-03  0.102851571226E-03  0.105631176480E-03
  0.108485901689E-03  0.111417776999E-03  0.114428887424E-03  0.117521374324E-03  0.120697436932E-03
  0.123959333915E-03  0.127309384981E-03  0.130749972530E-03  0.134283543348E-03  0.137912610344E-03
  0.141639754341E-03  0.145467625910E-03  0.149398947255E-03  0.153436514146E-03  0.157583197914E-03
  0.161841947485E-03  0.166215791484E-03  0.170707840383E-03  0.175321288718E-03  0.180059417358E-03
  0.184925595838E-03  0.189923284756E-03  0.195056038237E-03  0.200327506453E-03  0.205741438227E-03
  0.211301683694E-03  0.217012197040E-03  0.222877039316E-03  0.228900381323E-03  0.235086506581E-03
  0.241439814373E-03  0.247964822873E-03  0.254666172364E-03  0.261548628532E-03  0.268617085857E-03
  0.275876571097E-03  0.283332246857E-03  0.290989415266E-03  0.298853521743E-03  0.306930158875E-03
  0.315225070387E-03  0.323744155234E-03  0.332493471789E-03  0.341479242158E-03  0.350707856600E-03
  0.360185878075E-03  0.369920046909E-03  0.379917285587E-03  0.390184703678E-03  0.400729602890E-03
  0.411559482262E-03  0.422682043499E-03  0.434105196445E-03  0.445837064714E-03  0.457885991461E-03
  0.470260545320E-03  0.482969526495E-03  0.496021973019E-03  0.509427167183E-03  0.523194642133E-03
  0.537334188654E-03  0.551855862131E-03  0.566769989699E-03  0.582087177589E-03  0.597818318667E-03
  0.613974600188E-03  0.630567511741E-03  0.647608853432E-03  0.665110744264E-03  0.683085630765E-03
  0.701546295834E-03  0.720505867833E-03  0.739977829923E-03  0.759976029653E-03  0.780514688807E-03
  0.801608413521E-03  0.823272204666E-03  0.845521468515E-03  0.868372027707E-03  0.891840132490E-03
  0.915942472284E-03  0.940696187546E-03  0.966118881960E-03  0.992228634960E-03  0.101904401458E-02
  0.104658409066E-02  0.107486844843E-02  0.110391720239E-02  0.113375101065E-02  0.116439108963E-02
  0.119585922913E-02  0.122817780780E-02  0.126136980912E-02  0.129545883767E-02  0.133046913600E-02
  0.136642560177E-02  0.140335380556E-02  0.144128000897E-02  0.148023118334E-02  0.152023502893E-02
  0.156131999461E-02  0.160351529808E-02  0.164685094667E-02  0.169135775866E-02  0.173706738523E-02
  0.178401233292E-02  0.183222598677E-02  0.188174263410E-02  0.193259748882E-02  0.198482671653E-02
  0.203846746021E-02  0.209355786666E-02  0.215013711359E-02  0.220824543753E-02  0.226792416238E-02
  0.232921572888E-02  0.239216372472E-02  0.245681291558E-02  0.252320927692E-02  0.259140002675E-02
  0.266143365914E-02  0.273335997873E-02  0.280723013615E-02  0.288309666442E-02  0.296101351626E-02
  0.304103610248E-02  0.312322133142E-02  0.320762764937E-02  0.329431508215E-02  0.338334527782E-02
  0.347478155048E-02  0.356868892534E-02  0.366513418494E-02  0.376418591663E-02  0.386591456138E-02
  0.397039246384E-02  0.407769392381E-02  0.418789524908E-02  0.430107480967E-02  0.441731309360E-02
  0.453669276410E-02  0.465929871842E-02  0.478521814817E-02  0.491454060137E-02  0.504735804610E-02
  0.518376493592E-02  0.532385827703E-02  0.546773769726E-02  0.561550551695E-02  0.576726682164E-02
  0.592312953688E-02  0.608320450496E-02  0.624760556371E-02  0.641644962747E-02  0.658985677025E-02
  0.676795031110E-02  0.695085690183E-02  0.713870661704E-02  0.733163304668E-02  0.752977339101E-02
  0.773326855817E-02  0.794226326441E-02  0.815690613700E-02  0.837734981992E-02  0.860375108241E-02
  0.883627093045E-02  0.907507472131E-02  0.932033228106E-02  0.957221802543E-02  0.983091108378E-02
  0.100965954265E-01  0.103694599959E-01  0.106496988405E-01  0.109375112531E-01  0.112331019123E-01
  0.115366810286E-01  0.118484644930E-01  0.121686740315E-01  0.124975373621E-01  0.128352883571E-01
  0.131821672091E-01  0.135384206022E-01  0.139043018871E-01  0.142800712615E-01  0.146659959551E-01
  0.150623504194E-01  0.154694165231E-01  0.158874837527E-01  0.163168494181E-01  0.167578188640E-01
  0.172107056872E-01  0.176758319598E-01  0.181535284578E-01  0.186441348965E-01  0.191480001725E-01
  0.196654826110E-01  0.201969502214E-01  0.207427809587E-01  0.213033629921E-01  0.218790949813E-01
  0.224703863601E-01  0.230776576273E-01  0.237013406457E-01  0.243418789496E-01  0.249997280599E-01
  0.256753558080E-01  0.263692426690E-01  0.270818821026E-01  0.278137809048E-01  0.285654595677E-01
  0.293374526501E-01  0.301303091573E-01  0.309445929319E-01  0.317808830544E-01  0.326397742552E-01
  0.335218773376E-01  0.344278196121E-01  0.353582453425E-01  0.363138162040E-01  0.372952117540E-01
  0.383031299152E-01  0.393382874717E-01  0.404014205793E-01  0.414932852886E-01  0.426146580826E-01
  0.437663364293E-01  0.449491393484E-01  0.461639079942E-01  0.474115062533E-01  0.486928213593E-01
  0.500087645235E-01  0.513602715832E-01  0.527483036671E-01  0.541738478787E-01  0.556379179984E-01
  0.571415552044E-01  0.586858288132E-01  0.602718370400E-01  0.619007077798E-01  0.635735994091E-01
  0.652917016105E-01  0.670562362177E-01  0.688684580855E-01  0.707296559811E-01  0.726411535016E-01
  0.746043100147E-01  0.766205216254E-01  0.786912221693E-01  0.808178842317E-01  0.830020201953E-01
  0.852451833155E-01  0.875489688251E-01  0.899150150685E-01  0.923450046673E-01  0.948406657165E-01
  0.974037730135E-01  0.100036149320E+00  0.102739666660E+00  0.105516247648E+00  0.108367866859E+00
  0.111296552230E+00  0.114304386507E+00  0.117393508720E+00  0.120566115708E+00  0.123824463682E+00
  0.127170869825E+00  0.130607713946E+00  0.134137440168E+00  0.137762558666E+00  0.141485647457E+00
  0.145309354225E+00  0.149236398213E+00  0.153269572151E+00  0.157411744244E+00  0.161665860211E+00
  0.166034945380E+00  0.170522106840E+00  0.175130535651E+00  0.179863509112E+00  0.184724393092E+00
  0.189716644426E+00  0.194843813368E+00  0.200109546121E+00  0.205517587429E+00  0.211071783238E+00
  0.216776083431E+00  0.222634544642E+00  0.228651333132E+00  0.234830727762E+00  0.241177123028E+00
  0.247695032189E+00  0.254389090478E+00  0.261264058395E+00  0.268324825098E+00  0.275576411872E+00
  0.283023975708E+00  0.290672812964E+00  0.298528363137E+00  0.306596212726E+00  0.314882099209E+00
  0.323391915121E+00  0.332131712244E+00  0.341107705915E+00  0.350326279441E+00  0.359793988639E+00
  0.369517566502E+00  0.379503927985E+00  0.389760174920E+00  0.400293601071E+00  0.411111697318E+00
  0.422222156985E+00  0.433632881313E+00  0.445351985074E+00  0.457387802348E+00  0.469748892445E+00
  0.482444045994E+00  0.495482291196E+00  0.508872900240E+00  0.522625395903E+00  0.536749558315E+00
  0.551255431921E+00  0.566153332620E+00  0.581453855102E+00  0.597167880385E+00  0.613306583548E+00
  0.629881441682E+00  0.646904242052E+00  0.664387090477E+00  0.682342419943E+00  0.700782999439E+00
  0.719721943044E+00  0.739172719250E+00  0.759149160539E+00  0.779665473222E+00  0.800736247542E+00
  0.822376468048E+00  0.844601524254E+00  0.867427221581E+00  0.890869792597E+00  0.914945908563E+00
  0.939672691287E+00  0.965067725302E+00  0.991149070368E+00  0.101793527432E+01  0.104544538625E+01
  0.107369897007E+01  0.110271611840E+01  0.113251746689E+01  0.116312420885E+01  0.119455811038E+01
  0.122684152579E+01  0.125999741355E+01  0.129404935256E+01  0.132902155898E+01  0.136493890340E+01
  0.140182692856E+01  0.143971186750E+01  0.147862066222E+01  0.151858098283E+01  0.155962124724E+01
  0.160177064138E+01  0.164505913992E+01  0.168951752761E+01  0.173517742119E+01  0.178207129183E+01
  0.183023248827E+01  0.187969526049E+01  0.193049478412E+01  0.198266718538E+01  0.203624956686E+01
  0.209128003385E+01  0.214779772143E+01  0.220584282234E+01  0.226545661555E+01  0.232668149560E+01
  0.238956100277E+01  0.245413985401E+01  0.252046397479E+01  0.258858053172E+01  0.265853796611E+01
  0.273038602843E+01  0.280417581364E+01  0.287995979761E+01  0.295779187435E+01  0.303772739441E+01
  0.311982320418E+01  0.320413768636E+01  0.329073080148E+01  0.337966413052E+01  0.347100091869E+01
  0.356480612045E+01  0.366114644567E+01  0.376009040710E+01  0.386170836905E+01  0.396607259746E+01
  0.407325731130E+01  0.418333873532E+01
 aepotential
  0.120890912912E+05  0.122090384146E+05  0.123163995177E+05  0.124106043483E+05  0.124911501306E+05
  0.125575919984E+05  0.126095389570E+05  0.126466828606E+05  0.126687765299E+05  0.126756541145E+05
  0.126672239747E+05  0.126434769830E+05  0.126044832241E+05  0.125503865152E+05  0.124814190966E+05
  0.123978829351E+05  0.123001546819E+05  0.121886866234E+05  0.120639913181E+05  0.119266436602E+05
  0.117772780065E+05  0.116165734821E+05  0.114452598259E+05  0.112640833148E+05  0.110738616524E+05
  0.108753756058E+05  0.106694759902E+05  0.104569909581E+05  0.102387566010E+05  0.100156106310E+05
  0.978837015104E+04  0.955784518676E+04  0.932481449316E+04  0.909003880762E+04  0.885423978483E+04
  0.861811204056E+04  0.838230861167E+04  0.814744479953E+04  0.791409298122E+04  0.768278445713E+04
  0.745400574047E+04  0.722820066434E+04  0.700576855257E+04  0.678706627255E+04  0.657240868927E+04
  0.636207004784E+04  0.615628507070E+04  0.595525137674E+04  0.575913098794E+04  0.556805253438E+04
  0.538211345246E+04  0.520138219486E+04  0.502590049736E+04  0.485568565315E+04  0.469073274462E+04
  0.453101683228E+04  0.437649507388E+04  0.422710875983E+04  0.408278525236E+04  0.394343981685E+04
  0.380897734897E+04  0.367929396947E+04  0.355427852026E+04  0.343381393485E+04  0.331777846630E+04
  0.320604685300E+04  0.309849132685E+04  0.299498253763E+04  0.289539034330E+04  0.279958463406E+04
  0.270743573931E+04  0.261881536313E+04  0.253359657102E+04  0.245165457598E+04  0.237286708364E+04
  0.229711411723E+04  0.222427886400E+04  0.215424755682E+04  0.208690927072E+04  0.202215692938E+04
  0.195988634344E+04  0.189999707808E+04  0.184239191418E+04  0.178697713410E+04  0.173366241338E+04
  0.168236092256E+04  0.163298878911E+04  0.158546590432E+04  0.153971480515E+04  0.149566156093E+04
  0.145323494636E+04  0.141236682798E+04  0.137299183668E+04  0.133504737839E+04  0.129847347423E+04
  0.126321269412E+04  0.122921003575E+04  0.119641292153E+04  0.116477096031E+04  0.113423597425E+04
  0.110476182814E+04  0.107630443923E+04  0.104882156353E+04  0.102227284983E+04  0.996619619728E+03
  0.971824941268E+03  0.947853396804E+03  0.924671145880E+03  0.902245784821E+03  0.880546291159E+03
  0.859542961798E+03  0.839207369242E+03  0.819512279119E+03  0.800431604104E+03  0.781940327914E+03
  0.764014609054E+03  0.746631328132E+03  0.729768626617E+03  0.713405329062E+03  0.697521223238E+03
  0.682096865915E+03  0.667113675306E+03  0.652553708642E+03  0.638399832019E+03  0.624635508556E+03
  0.611244916520E+03  0.598212825803E+03  0.585524570891E+03  0.573166066038E+03  0.561123780943E+03
  0.549384665687E+03  0.537936159245E+03  0.526766181065E+03  0.515863079257E+03  0.505215638054E+03
  0.494813028283E+03  0.484644811944E+03  0.474700929129E+03  0.464971654761E+03  0.455447609037E+03
  0.446119722421E+03  0.436979247106E+03  0.428017705273E+03  0.419226914760E+03  0.410598953993E+03
  0.402126154110E+03  0.393801094463E+03  0.385616581369E+03  0.377565649083E+03  0.369641542554E+03
  0.361837711946E+03  0.354147799453E+03  0.346565641382E+03  0.339085247074E+03  0.331700800440E+03
  0.324406650927E+03  0.317197306540E+03  0.310067426616E+03  0.303011818328E+03  0.296025428571E+03
  0.289103341053E+03  0.282240770012E+03  0.275433055321E+03  0.268675660166E+03  0.261964163581E+03
  0.255294262476E+03  0.248661761419E+03  0.242062573341E+03  0.235492716109E+03  0.228948312474E+03
  0.222425579179E+03  0.215920835978E+03  0.209430496894E+03  0.202951067756E+03  0.196479150071E+03
  0.190011435163E+03  0.183544704811E+03  0.177075832971E+03  0.170601780254E+03  0.164119597254E+03
  0.157626425368E+03  0.151119493121E+03  0.144596122123E+03  0.138053721064E+03  0.131489794663E+03
  0.124901938100E+03  0.118287841663E+03  0.111645292993E+03  0.104972178752E+03  0.982664857864E+02
  0.915263056301E+02  0.847498368228E+02  0.779353883586E+02  0.710813837720E+02  0.641863643726E+02
  0.572489955933E+02  0.502680703824E+02  0.432425155296E+02  0.361713975927E+02  0.290539293771E+02
  0.218894767346E+02  0.146775673778E+02  0.741789772535E+01  0.110343804707E+00 -0.724503048532E+01
 -0.146479613830E+02 -0.220979744441E+02 -0.295943715709E+02 -0.371362181057E+02 -0.447223278554E+02
 -0.523512483347E+02 -0.600212441182E+02 -0.677302798595E+02 -0.754760025925E+02 -0.832557227998E+02
 -0.910663963440E+02 -0.989046051630E+02 -0.106766539512E+03 -0.114647980651E+03 -0.122544286120E+03
 -0.130450377559E+03 -0.138360733153E+03 -0.146269385581E+03 -0.154169927676E+03 -0.162055527598E+03
 -0.169918955728E+03 -0.177752625324E+03 -0.185548649611E+03 -0.193298916594E+03 -0.200995182999E+03
 -0.208629186972E+03 -0.216192777693E+03 -0.223678056475E+03 -0.231077521079E+03 -0.238384198604E+03
 -0.245591747462E+03 -0.252694500417E+03 -0.259687415008E+03 -0.266565890413E+03 -0.273325408457E+03
 -0.279960961698E+03 -0.286466246856E+03 -0.292832635478E+03 -0.299047984914E+03 -0.305095413816E+03
 -0.310952301539E+03 -0.316589659918E+03 -0.321972371870E+03 -0.327060427923E+03 -0.331811328858E+03
 -0.336183590228E+03 -0.340140982293E+03 -0.343656932209E+03 -0.346718403049E+03 -0.349328614906E+03
 -0.351508174446E+03 -0.353294437244E+03 -0.354739177473E+03 -0.355904831700E+03 -0.356859758402E+03
 -0.357673125593E+03 -0.358410173194E+03 -0.359128556233E+03 -0.359876249211E+03 -0.360691044939E+03
 -0.361601310936E+03 -0.362627440501E+03 -0.363783471965E+03 -0.365078517990E+03 -0.366517874734E+03
 -0.368103818210E+03 -0.369836174376E+03 -0.371712753889E+03 -0.373729705439E+03 -0.375881818705E+03
 -0.378162785566E+03 -0.380565409932E+03 -0.383081768209E+03 -0.385703314250E+03 -0.388420934476E+03
 -0.391224957677E+03 -0.394105126266E+03 -0.397050541031E+03 -0.400049582933E+03 -0.403089826263E+03
 -0.406157950557E+03 -0.409239667594E+03 -0.412319674388E+03 -0.415381658850E+03 -0.418408374304E+03
 -0.421381812810E+03 -0.424283493984E+03 -0.427094881051E+03 -0.429797902871E+03 -0.432375520522E+03
 -0.434812203770E+03 -0.437094095528E+03 -0.439208552832E+03 -0.441142706514E+03 -0.442880767274E+03
 -0.444400136387E+03 -0.445666966117E+03 -0.446632879477E+03 -0.447234983662E+03 -0.447401578291E+03
 -0.447065131462E+03 -0.446180342802E+03 -0.444743491618E+03 -0.442804333353E+03 -0.440461474345E+03
 -0.437837866284E+03 -0.435046131243E+03 -0.432162385144E+03 -0.429220711021E+03 -0.426224763704E+03
 -0.423164404741E+03 -0.420028195715E+03 -0.416809329206E+03 -0.413506638826E+03 -0.410123126760E+03
 -0.406663823899E+03 -0.403133972621E+03 -0.399537899454E+03 -0.395878572031E+03 -0.392157652697E+03
 -0.388375826134E+03 -0.384533208557E+03 -0.380629732136E+03 -0.376665442251E+03 -0.372640698739E+03
 -0.368556290729E+03 -0.364413486156E+03 -0.360214026809E+03 -0.355960100058E+03 -0.351654281010E+03
 -0.347299468043E+03 -0.342898813840E+03 -0.338455646925E+03 -0.333973402653E+03 -0.329455549627E+03
 -0.324905528935E+03 -0.320326687545E+03 -0.315722247083E+03 -0.311095256842E+03 -0.306448583251E+03
 -0.301784916226E+03 -0.297106801732E+03 -0.292416644098E+03 -0.287716874195E+03 -0.283009933087E+03
 -0.278298407443E+03 -0.273585094401E+03 -0.268873043408E+03 -0.264165548411E+03 -0.259466070061E+03
 -0.254778080828E+03 -0.250104838662E+03 -0.245449120670E+03 -0.240812978744E+03 -0.236197605032E+03
 -0.231603406015E+03 -0.227030348232E+03 -0.222478562980E+03 -0.217949076658E+03 -0.213444440773E+03
 -0.208969029426E+03 -0.204528865556E+03 -0.200131028888E+03 -0.195782839029E+03 -0.191491085522E+03
 -0.187261456476E+03 -0.183098332146E+03 -0.179004764818E+03 -0.174982658987E+03 -0.171033026044E+03
 -0.167156212963E+03 -0.163352107429E+03 -0.159620287667E+03 -0.155960142669E+03 -0.152370933030E+03
 -0.148851849814E+03 -0.145402052418E+03 -0.142020677118E+03 -0.138706859081E+03 -0.135459734249E+03
 -0.132278439571E+03 -0.129162121837E+03 -0.126109905752E+03 -0.123120911644E+03 -0.120194237044E+03
 -0.117328944062E+03 -0.114524055837E+03 -0.111778549917E+03 -0.109091354484E+03 -0.106461350833E+03
 -0.103887379783E+03 -0.101368252721E+03 -0.989027671002E+02 -0.964897251921E+02 -0.941279543339E+02
 -0.918163272316E+02 -0.895537804914E+02 -0.873393299997E+02 -0.851720834820E+02 -0.830512412549E+02
 -0.809761101508E+02 -0.789460901105E+02 -0.769606742469E+02 -0.750194390309E+02 -0.731220328494E+02
 -0.712681620439E+02 -0.694575744634E+02 -0.676900404749E+02 -0.659653315536E+02 -0.642831967792E+02
 -0.626433381394E+02 -0.610453860489E+02 -0.594888770417E+02 -0.579732358882E+02 -0.564977643026E+02
 -0.550616378819E+02 -0.536639119941E+02 -0.523035361947E+02 -0.509793756488E+02 -0.496902372129E+02
 -0.484348974484E+02 -0.472121299285E+02
 core charge-density
  0.178295109016E-02  0.187754830365E-02  0.197715586749E-02  0.208203844477E-02  0.219247462133E-02
  0.230875763352E-02  0.243119613366E-02  0.256011499508E-02  0.269585615871E-02  0.283877952350E-02
  0.298926388266E-02  0.314770790824E-02  0.331453118642E-02  0.349017530598E-02  0.367510500289E-02
  0.386980936348E-02  0.407480308954E-02  0.429062782811E-02  0.451785356939E-02  0.475708011620E-02
  0.500893862840E-02  0.527409324620E-02  0.555324279608E-02  0.584712258370E-02  0.615650627766E-02
  0.648220788934E-02  0.682508385245E-02  0.718603520851E-02  0.756600990236E-02  0.796600519359E-02
  0.838707018966E-02  0.883030850622E-02  0.929688106129E-02  0.978800900919E-02  0.103049768218E-01
  0.108491355232E-01  0.114219060863E-01  0.120247829976E-01  0.126593380001E-01  0.133272240207E-01
  0.140301792928E-01  0.147700316815E-01  0.155487032228E-01  0.163682148845E-01  0.172306915619E-01
  0.181383673166E-01  0.190935908712E-01  0.200988313714E-01  0.211566844271E-01  0.222698784462E-01
  0.234412812734E-01  0.246739071482E-01  0.259709239964E-01  0.273356610700E-01  0.287716169507E-01
  0.302824679326E-01  0.318720768018E-01  0.335445020293E-01  0.353040073942E-01  0.371550720574E-01
  0.391024011038E-01  0.411509365719E-01  0.433058689927E-01  0.455726494579E-01  0.479570022389E-01
  0.504649379795E-01  0.531027674840E-01  0.558771161262E-01  0.587949389006E-01  0.618635361440E-01
  0.650905699492E-01  0.684840813000E-01  0.720525079517E-01  0.758047030854E-01  0.797499547630E-01
  0.838980062105E-01  0.882590769599E-01  0.928438848749E-01  0.976636690930E-01  0.102730213911E+00
  0.108055873643E+00  0.113653598482E+00  0.119536961393E+00  0.125720186066E+00  0.132218175958E+00
  0.139046544454E+00  0.146221646174E+00  0.153760609449E+00  0.161681369993E+00  0.170002705807E+00
  0.178744273314E+00  0.187926644772E+00  0.197571346965E+00  0.207700901202E+00  0.218338864631E+00
  0.229509872880E+00  0.241239684034E+00  0.253555223958E+00  0.266484632951E+00  0.280057313740E+00
  0.294303980801E+00  0.309256710982E+00  0.324948995416E+00  0.341415792685E+00  0.358693583204E+00
  0.376820424775E+00  0.395836009255E+00  0.415781720266E+00  0.436700691880E+00  0.458637868180E+00
  0.481640063595E+00  0.505756023888E+00  0.531036487672E+00  0.557534248291E+00  0.585304215903E+00
  0.614403479576E+00  0.644891369184E+00  0.676829516874E+00  0.710281917838E+00  0.745314990122E+00
  0.781997633142E+00  0.820401284586E+00  0.860599975312E+00  0.902670381856E+00  0.946691876090E+00
  0.992746571572E+00  0.104091936605E+01  0.109129797960E+01  0.114397298772E+01  0.119903784886E+01
  0.125658892555E+01  0.131672549849E+01  0.137954977274E+01  0.144516687523E+01  0.151368484262E+01
  0.158521459856E+01  0.165986991939E+01  0.173776738712E+01  0.181902632861E+01  0.190376873975E+01
  0.199211919332E+01  0.208420472926E+01  0.218015472600E+01  0.228010075125E+01  0.238417639101E+01
  0.249251705494E+01  0.260525975672E+01  0.272254286762E+01  0.284450584156E+01  0.297128891005E+01
  0.310303274502E+01  0.323987808797E+01  0.338196534345E+01  0.352943413517E+01  0.368242282284E+01
  0.384106797807E+01  0.400550381750E+01  0.417586159151E+01  0.435226892697E+01  0.453484912244E+01
  0.472372039448E+01  0.491899507399E+01  0.512077875131E+01  0.532916936955E+01  0.554425626541E+01
  0.576611915727E+01  0.599482708081E+01  0.623043727236E+01  0.647299400105E+01  0.672252735118E+01
  0.697905195648E+01  0.724256568914E+01  0.751304830631E+01  0.779046005834E+01  0.807474026304E+01
  0.836580585168E+01  0.866354989287E+01  0.896784010176E+01  0.927851734275E+01  0.959539413527E+01
  0.991825317302E+01  0.102468458684E+02  0.105808909354E+02  0.109200730245E+02  0.112640414258E+02
  0.116124088576E+02  0.119647503567E+02  0.123206022932E+02  0.126794615274E+02  0.130407847335E+02
  0.134039879121E+02  0.137684461164E+02  0.141334934181E+02  0.144984231393E+02  0.148624883765E+02
  0.152249028462E+02  0.155848420793E+02  0.159414449914E+02  0.162938158580E+02  0.166410267208E+02
  0.169821202508E+02  0.173161130929E+02  0.176419997133E+02  0.179587567705E+02  0.182653480250E+02
  0.185607298005E+02  0.188438570047E+02  0.191136897125E+02  0.193692003074E+02  0.196093811729E+02
  0.198332529139E+02  0.200398730855E+02  0.202283453915E+02  0.203978293108E+02  0.205475500959E+02
  0.206768090777E+02  0.207849942008E+02  0.208715906998E+02  0.209361918150E+02  0.209785094371E+02
  0.209983845517E+02  0.209957973510E+02  0.209708768608E+02  0.209239099262E+02  0.208553493864E+02
  0.207658212634E+02  0.206561307804E+02  0.205272670237E+02  0.203804060589E+02  0.202169123127E+02
  0.200383380347E+02  0.198464206642E+02  0.196430779320E+02  0.194304005490E+02  0.192106423448E+02
  0.189862077507E+02  0.187596365410E+02  0.185335857864E+02  0.183108090021E+02  0.180941325196E+02
  0.178864291498E+02  0.176905892563E+02  0.175094894031E+02  0.173459587951E+02  0.172027437819E+02
  0.170824707505E+02  0.169876077775E+02  0.169204254517E+02  0.168829574247E+02  0.168769611301E+02
  0.169038793079E+02  0.169648029537E+02  0.170604363643E+02  0.171910649827E+02  0.173565267704E+02
  0.175561878401E+02  0.177889230774E+02  0.180531024555E+02  0.183465837046E+02  0.186667119352E+02
  0.190103267321E+02  0.193737771332E+02  0.197529447922E+02  0.201432754977E+02  0.205398190927E+02
  0.209372777030E+02  0.213300620443E+02  0.217123554270E+02  0.220781849179E+02  0.224214989508E+02
  0.227362505025E+02  0.230164847867E+02  0.232564302465E+02  0.234505914871E+02  0.235938426512E+02
  0.236815196261E+02  0.237095093911E+02  0.236743347432E+02  0.235732326155E+02  0.234042242002E+02
  0.231661751323E+02  0.228588440637E+02  0.224829180799E+02  0.220400335743E+02  0.215327813984E+02
  0.209646953571E+02  0.203402234076E+02  0.196646812532E+02  0.189441883807E+02  0.181855869961E+02
  0.173963447175E+02  0.165844423228E+02  0.157582482719E+02  0.149263821438E+02  0.140975695110E+02
  0.132804911120E+02  0.124836294557E+02  0.117151161728E+02  0.109825835204E+02  0.102930234255E+02
  0.965265732729E+01  0.906681990308E+01  0.853985929078E+01  0.807505659946E+01  0.767456666672E+01
  0.733938151212E+01  0.706931907833E+01  0.686303724716E+01  0.671807430118E+01  0.663091556188E+01
  0.659708487220E+01  0.661125805796E+01  0.666739415904E+01  0.675887971970E+01  0.687868183049E+01
  0.701950628182E+01  0.717395753759E+01  0.733469717358E+01  0.749459720872E+01  0.764688464732E+01
  0.778527362798E+01  0.790408186703E+01  0.799832857283E+01  0.806381163626E+01  0.809716264497E+01
  0.809587905582E+01  0.805833365156E+01  0.798376213747E+01  0.787223040451E+01  0.772458353269E+01
  0.754237905668E+01  0.732780732488E+01  0.708360199073E+01  0.681294372644E+01  0.651936024133E+01
  0.620662552183E+01  0.587866100615E+01  0.553944112382E+01  0.519290526927E+01  0.484287794502E+01
  0.449299839729E+01  0.414666069791E+01  0.380696476370E+01  0.347667876180E+01  0.315821254171E+01
  0.285360184552E+01  0.256450264259E+01  0.229219486055E+01  0.203759389587E+01  0.180127002620E+01
  0.158347323692E+01  0.138416284776E+01  0.120304054171E+01  0.103958555742E+01  0.893090870932E+00
  0.762699288041E+00  0.647438492248E+00  0.546254239353E+00  0.458041050321E+00  0.381669920773E+00
  0.316012727890E+00  0.259963163779E+00  0.212454150659E+00  0.172471793626E+00  0.139066004017E+00
  0.111357987590E+00  0.885448457922E-01  0.699015900618E-01  0.547809157770E-01  0.426111166812E-01
  0.328925340086E-01  0.251929239490E-01  0.191420962869E-01  0.144261318591E-01  0.107814364192E-01
  0.798883815104E-02  0.586788952942E-02  0.427149266983E-02  0.308093108078E-02  0.220135965009E-02
  0.155777858596E-02  0.109149557808E-02  0.757063457735E-03  0.519667779252E-03  0.352929677426E-03
  0.237083630217E-03  0.157486897197E-03  0.103416894395E-03  0.671140886598E-04  0.430306696895E-04
  0.272488292426E-04  0.170365666047E-04  0.105132239364E-04  0.640118568385E-05  0.384416974764E-05
  0.227617216173E-05  0.132833210832E-05  0.763733018944E-06  0.432453847320E-06  0.241060901233E-06
  0.132228030363E-06  0.713421548146E-07  0.378447945641E-07  0.197292016932E-07  0.101031589273E-07
  0.507977525267E-08  0.250646117814E-08  0.121308185066E-08  0.575584380796E-09  0.267601283665E-09
  0.121840401284E-09  0.542968791995E-10  0.236694356918E-10  0.100872280364E-10  0.420010563378E-11
  0.170756998088E-11  0.677398162064E-12  0.262038852570E-12  0.987743359652E-13  0.362552962058E-13
  0.129488563470E-13  0.449675506422E-14  0.151719600107E-14  0.496954979995E-15  0.157897405534E-15
  0.486246557261E-16  0.145008634781E-16
 kinetic energy-density
  0.265536633860E+04  0.266539048645E+04  0.267579270790E+04  0.268658313524E+04  0.269777257724E+04
  0.270937195694E+04  0.272139279576E+04  0.273384684012E+04  0.274674632919E+04  0.276010391661E+04
  0.277393275550E+04  0.278824645796E+04  0.280305904246E+04  0.281838520526E+04  0.283424018178E+04
  0.285063964829E+04  0.286760013997E+04  0.288513866583E+04  0.290327293225E+04  0.292202141425E+04
  0.294140332797E+04  0.296143868019E+04  0.298214803665E+04  0.300355351857E+04  0.302567711706E+04
  0.304854249846E+04  0.307217419899E+04  0.309659733843E+04  0.312183858903E+04  0.314792531400E+04
  0.317488623830E+04  0.320275118210E+04  0.323155112259E+04  0.326131819507E+04  0.329208616358E+04
  0.332388977593E+04  0.335676546436E+04  0.339075094099E+04  0.342588550341E+04  0.346221003409E+04
  0.349976706676E+04  0.353860078092E+04  0.357875712160E+04  0.362028392669E+04  0.366323096033E+04
  0.370764990791E+04  0.375359459333E+04  0.380112098334E+04  0.385028729574E+04  0.390115410382E+04
  0.395378442846E+04  0.400824384330E+04  0.406460058374E+04  0.412292566551E+04  0.418329300003E+04
  0.424577952278E+04  0.431046532398E+04  0.437743378598E+04  0.444677172858E+04  0.451856955605E+04
  0.459292141925E+04  0.466992537506E+04  0.474968355735E+04  0.483230236383E+04  0.491789263386E+04
  0.500656984665E+04  0.509845431901E+04  0.519367144979E+04  0.529235185175E+04  0.539463173481E+04
  0.550065297932E+04  0.561056347129E+04  0.572451744062E+04  0.584267547462E+04  0.596520516934E+04
  0.609228107110E+04  0.622408520160E+04  0.636080733537E+04  0.650264526477E+04  0.664980514992E+04
  0.680250203248E+04  0.696095989838E+04  0.712541246756E+04  0.729610319786E+04  0.747328589707E+04
  0.765722526279E+04  0.784819699178E+04  0.804648861636E+04  0.825239970367E+04  0.846624250547E+04
  0.868834240157E+04  0.891903846383E+04  0.915868389683E+04  0.940764681173E+04  0.966631056321E+04
  0.993507455470E+04  0.102143547022E+05  0.105045841515E+05  0.108062139180E+05  0.111197135475E+05
  0.114455717968E+05  0.117842973411E+05  0.121364195063E+05  0.125024890269E+05  0.128830787250E+05
  0.132787843990E+05  0.136902254916E+05  0.141180459502E+05  0.145629150117E+05  0.150255280828E+05
  0.155066074548E+05  0.160069032712E+05  0.165271942747E+05  0.170682887390E+05  0.176310251293E+05
  0.182162732966E+05  0.188249350630E+05  0.194579449076E+05  0.201162712933E+05  0.208009170035E+05
  0.215129200929E+05  0.222533546923E+05  0.230233318733E+05  0.238239998840E+05  0.246565454420E+05
  0.255221936522E+05  0.264222092876E+05  0.273578967386E+05  0.283306005342E+05  0.293417058644E+05
  0.303926387040E+05  0.314848659617E+05  0.326198954500E+05  0.337992758862E+05  0.350245967029E+05
  0.362974875320E+05  0.376196176917E+05  0.389926955415E+05  0.404184674802E+05  0.418987168629E+05
  0.434352625097E+05  0.450299572708E+05  0.466846860124E+05  0.484013634145E+05  0.501819315408E+05
  0.520283570324E+05  0.539426278319E+05  0.559267496662E+05  0.579827420967E+05  0.601126340422E+05
  0.623184590085E+05  0.646022496290E+05  0.669660319097E+05  0.694118187872E+05  0.719416031864E+05
  0.745573504209E+05  0.772609901167E+05  0.800544073470E+05  0.829394331469E+05  0.859178343993E+05
  0.889913028992E+05  0.921614437937E+05  0.954297631807E+05  0.987976549830E+05  0.102266387086E+06
  0.105837086424E+06  0.109510723999E+06  0.113288097941E+06  0.117169816723E+06  0.121156281739E+06
  0.125247667743E+06  0.129443904438E+06  0.133744655821E+06  0.138149299939E+06  0.142656907028E+06
  0.147266218270E+06  0.151975622951E+06  0.156783136191E+06  0.161686375597E+06  0.166682538355E+06
  0.171768377888E+06  0.176940180733E+06  0.182193743904E+06  0.187524352111E+06  0.192926756217E+06
  0.198395152286E+06  0.203923161443E+06  0.209503811354E+06  0.215129519289E+06  0.220792076590E+06
  0.226482635925E+06  0.232191700180E+06  0.237909114942E+06  0.243624063424E+06  0.249325065064E+06
  0.254999978037E+06  0.260636005693E+06  0.266219707563E+06  0.271737015389E+06  0.277173254102E+06
  0.282513168580E+06  0.287740956195E+06  0.292840305592E+06  0.297794441922E+06  0.302586178824E+06
  0.307197977355E+06  0.311612011935E+06  0.315810243651E+06  0.319774500611E+06  0.323486565722E+06
  0.326928271429E+06  0.330081601424E+06  0.332928799149E+06  0.335452482221E+06  0.337635763103E+06
  0.339462374503E+06  0.340916799533E+06  0.341984405320E+06  0.342651579386E+06  0.342905867472E+06
  0.342736111846E+06  0.342132588544E+06  0.341087142199E+06  0.339593317021E+06  0.337646481998E+06
  0.335243948904E+06  0.332385081109E+06  0.329071391509E+06  0.325306627597E+06  0.321096841970E+06
  0.316450446365E+06  0.311378247586E+06  0.305893463683E+06  0.300011718907E+06  0.293751016244E+06
  0.287131686432E+06  0.280176312781E+06  0.272909631297E+06  0.265358406033E+06  0.257551279922E+06
  0.249518601646E+06  0.241292229568E+06  0.232905313849E+06  0.224392058506E+06  0.215787464827E+06
  0.207127054783E+06  0.198446598908E+06  0.189781794098E+06  0.181167971132E+06  0.172639776965E+06
  0.164230859423E+06  0.155973555163E+06  0.147898586335E+06  0.140034771769E+06  0.132408758418E+06
  0.125044778305E+06  0.117964435310E+06  0.111186525123E+06  0.104726890575E+06  0.985983137421E+05
  0.928104453815E+05  0.873697718075E+05  0.822796188709E+05  0.775401924717E+05  0.731486547985E+05
  0.690992353146E+05  0.653833753079E+05  0.619899042488E+05  0.589052461158E+05  0.561136528497E+05
  0.535974619799E+05  0.513373747494E+05  0.493127505672E+05  0.475019135054E+05  0.458824660848E+05
  0.444316055957E+05  0.431264382260E+05  0.419442862891E+05  0.408629840069E+05  0.398611577626E+05
  0.389184867598E+05  0.380159407211E+05  0.371359914033E+05  0.362627952695E+05  0.353823452616E+05
  0.344825896127E+05  0.335535167962E+05  0.325872053578E+05  0.315778387426E+05  0.305216847947E+05
  0.294170408395E+05  0.282641453767E+05  0.270650580124E+05  0.258235101283E+05  0.245447291324E+05
  0.232352402435E+05  0.219026502594E+05  0.205554186128E+05  0.192026214713E+05  0.178537146091E+05
  0.165182999719E+05  0.152059015085E+05  0.139257493461E+05  0.126865752177E+05  0.114964249446E+05
  0.103624792987E+05  0.929089904932E+04  0.828670451606E+04  0.735369465527E+04  0.649441761237E+04
  0.571019225116E+04  0.500117071810E+04  0.436642563914E+04  0.380404773294E+04  0.331124821973E+04
  0.288446743751E+04  0.251949231678E+04  0.221158281601E+04  0.195560461767E+04  0.174616387156E+04
  0.157773958119E+04  0.144480964196E+04  0.134196714891E+04  0.126402417396E+04  0.120610085060E+04
  0.116369815550E+04  0.113275347313E+04  0.110967871996E+04  0.109138140494E+04  0.107526969943E+04
  0.105924306792E+04  0.104167033251E+04  0.102135749688E+04  0.997507528135E+03  0.969674566599E+03
  0.937714712858E+03  0.901735554024E+03  0.862046136548E+03  0.819109055516E+03  0.773495776707E+03
  0.725846068906E+03  0.676832701707E+03  0.627130375352E+03  0.577390889425E+03  0.528222959790E+03
  0.480177099303E+03  0.433734910344E+03  0.389303114908E+03  0.347210125314E+03  0.307706391374E+03
  0.270967313352E+03  0.237097940125E+03  0.206139276522E+03  0.178075663762E+03  0.152842812112E+03
  0.130336110482E+03  0.110418883707E+03  0.929303191366E+02  0.776928381817E+02  0.645187451520E+02
  0.532160451488E+02  0.435933805901E+02  0.354640895742E+02  0.286494309021E+02  0.229810459234E+02
  0.183027357078E+02  0.144716271253E+02  0.113587939300E+02  0.884939614209E+01  0.684240616102E+01
  0.524999907679E+01  0.399669080888E+01  0.301830773557E+01  0.226086299801E+01  0.167940240435E+01
  0.123686811235E+01  0.903014955145E+00  0.653402699809E+00  0.468478425053E+00  0.332756059318E+00
  0.234094819491E+00  0.163074292462E+00  0.112461033821E+00  0.767596515348E-01  0.518401363005E-01
  0.346326416632E-01  0.228808277116E-01  0.149451676734E-01  0.964817259291E-02  0.615421491810E-02
  0.387746116363E-02  0.241228737959E-02  0.148140113005E-02  0.897695850818E-03  0.536593218999E-03
  0.316273398670E-03  0.183746632846E-03  0.105183754597E-03  0.593033745620E-04  0.329181979271E-04
  0.179820225940E-04  0.966278222055E-05  0.510549195286E-05  0.265124851887E-05  0.135251256795E-05
  0.677494036830E-06  0.333067790088E-06  0.160622591805E-06  0.759460445708E-07  0.351883964817E-07
  0.159681300649E-07  0.709294031530E-08  0.308223814933E-08  0.130953160727E-08  0.543638176122E-09
  0.220380961477E-09  0.871818102175E-10  0.336336687587E-10  0.126450124962E-10  0.462969339734E-11
  0.164951246661E-11  0.571482617035E-12  0.192379760326E-12  0.628754083810E-13  0.199349333208E-13
  0.612632453331E-14  0.182333457871E-14
 mkinetic energy-density pseudized
  0.558320872458E-06  0.588906348575E-06  0.621167333144E-06  0.655195612495E-06  0.691088001118E-06
  0.728946617114E-06  0.768879172737E-06  0.810999280842E-06  0.855426778130E-06  0.902288066100E-06
  0.951716470669E-06  0.100385262151E-05  0.105884485215E-05  0.111684962200E-05  0.117803196151E-05
  0.124256594168E-05  0.131063516934E-05  0.138243330949E-05  0.145816463635E-05  0.153804461451E-05
  0.162230051197E-05  0.171117204674E-05  0.180491206885E-05  0.190378727975E-05  0.200807899113E-05
  0.211808392524E-05  0.223411505912E-05  0.235650251508E-05  0.248559449990E-05  0.262175829553E-05
  0.276538130406E-05  0.291687214993E-05  0.307666184247E-05  0.324520500224E-05  0.342298115440E-05
  0.361049609310E-05  0.380828332046E-05  0.401690556445E-05  0.423695637995E-05  0.446906183746E-05
  0.471388230433E-05  0.497211432362E-05  0.524449259579E-05  0.553179206908E-05  0.583483014424E-05
  0.615446900019E-05  0.649161804701E-05  0.684723651329E-05  0.722233617526E-05  0.761798423541E-05
  0.803530635878E-05  0.847548987565E-05  0.893978715956E-05  0.942951919051E-05  0.994607931328E-05
  0.104909372016E-04  0.110656430397E-04  0.116718319324E-04  0.123112285577E-04  0.129856520730E-04
  0.136970212915E-04  0.144473601409E-04  0.152388034221E-04  0.160736028823E-04  0.169541336224E-04
  0.178829008535E-04  0.188625470251E-04  0.198958593428E-04  0.209857776983E-04  0.221354030338E-04
  0.233480061642E-04  0.246270370833E-04  0.259761347790E-04  0.273991375868E-04  0.289000941101E-04
  0.304832747388E-04  0.321531837994E-04  0.339145723695E-04  0.357724517958E-04  0.377321079512E-04
  0.397991162741E-04  0.419793576304E-04  0.442790350456E-04  0.467046913528E-04  0.492632278074E-04
  0.519619237217E-04  0.548084571752E-04  0.578109268596E-04  0.609778751194E-04  0.643183122562E-04
  0.678417421632E-04  0.715581893644E-04  0.754782275351E-04  0.796130095845E-04  0.839742993864E-04
  0.885745052476E-04  0.934267152110E-04  0.985447342904E-04  0.103943123747E-03  0.109637242518E-03
  0.115643290909E-03  0.121978356689E-03  0.128660463703E-03  0.135708623151E-03  0.143142887673E-03
  0.150984408401E-03  0.159255495133E-03  0.167979679804E-03  0.177181783434E-03  0.186887986743E-03
  0.197125904633E-03  0.207924664756E-03  0.219314990372E-03  0.231329287763E-03  0.244001738422E-03
  0.257368396297E-03  0.271467290364E-03  0.286338532809E-03  0.302024433151E-03  0.318569618598E-03
  0.336021161013E-03  0.354428710818E-03  0.373844638249E-03  0.394324182332E-03  0.415925608031E-03
  0.438710371996E-03  0.462743297393E-03  0.488092758310E-03  0.514830874260E-03  0.543033715338E-03
  0.572781518615E-03  0.604158916389E-03  0.637255176923E-03  0.672164458382E-03  0.708986076671E-03
  0.747824787939E-03  0.788791086561E-03  0.832001519434E-03  0.877579017484E-03  0.925653245332E-03
  0.976360970104E-03  0.102984645044E-02  0.108626184680E-02  0.114576765424E-02  0.120853315889E-02
  0.127473691944E-02  0.134456727492E-02  0.141822288041E-02  0.149591327192E-02  0.157785946236E-02
  0.166429457000E-02  0.175546448144E-02  0.185162855079E-02  0.195306033720E-02  0.206004838268E-02
  0.217289703259E-02  0.229192730094E-02  0.241747778314E-02  0.254990561865E-02  0.268958750631E-02
  0.283692077527E-02  0.299232451448E-02  0.315624076404E-02  0.332913577165E-02  0.351150131789E-02
  0.370385611390E-02  0.390674727565E-02  0.412075187871E-02  0.434647859813E-02  0.458456943802E-02
  0.483570155565E-02  0.510058918532E-02  0.537998566740E-02  0.567468558832E-02  0.598552703751E-02
  0.631339398764E-02  0.665921880505E-02  0.702398489719E-02  0.740872950487E-02  0.781454664686E-02
  0.824259022541E-02  0.869407730133E-02  0.917029154785E-02  0.967258689300E-02  0.102023913608E-01
  0.107612111221E-01  0.113506347660E-01  0.119723378052E-01  0.126280874256E-01  0.133197474959E-01
  0.140492838499E-01  0.148187698565E-01  0.156303922929E-01  0.164864575379E-01  0.173893981022E-01
  0.183417795138E-01  0.193463075780E-01  0.204058360322E-01  0.215233746167E-01  0.227020975835E-01
  0.239453526674E-01  0.252566705441E-01  0.266397748007E-01  0.280985924476E-01  0.296372649983E-01
  0.312601601514E-01  0.329718841022E-01  0.347772945218E-01  0.366815142368E-01  0.386899456471E-01
  0.408082859226E-01  0.430425430177E-01  0.453990525492E-01  0.478844955813E-01  0.505059173674E-01
  0.532707470972E-01  0.561868187029E-01  0.592623927803E-01  0.625061796820E-01  0.659273638440E-01
  0.695356294108E-01  0.733411872243E-01  0.773548032491E-01  0.815878285058E-01  0.860522305908E-01
  0.907606268640E-01  0.957263193875E-01  0.100963331705E+00  0.106486447552E+00  0.112311251604E+00
  0.118454172340E+00  0.124932527159E+00  0.131764569827E+00  0.138969540400E+00  0.146567717711E+00
  0.154580474571E+00  0.163030335797E+00  0.171941039210E+00  0.181337599738E+00  0.191246376758E+00
  0.201695144848E+00  0.212713168083E+00  0.224331278037E+00  0.236581955662E+00  0.249499417202E+00
  0.263119704317E+00  0.277480778595E+00  0.292622620627E+00  0.308587333823E+00  0.325419253168E+00
  0.343165059086E+00  0.361873896609E+00  0.381597500038E+00  0.402390323277E+00  0.424309676024E+00
  0.447415866002E+00  0.471772347402E+00  0.497445875694E+00  0.524506668983E+00  0.553028576029E+00
  0.583089251069E+00  0.614770335560E+00  0.648157646906E+00  0.683341374248E+00  0.720416281332E+00
  0.759481916449E+00  0.800642829392E+00  0.844008795329E+00  0.889695045426E+00  0.937822503990E+00
  0.988518031835E+00  0.104191467547E+01  0.109815192164E+01  0.115737595656E+01  0.121973992924E+01
  0.128540421781E+01  0.135453669814E+01  0.142731301314E+01  0.150391684174E+01  0.158454016552E+01
  0.166938353147E+01  0.175865630835E+01  0.185257693445E+01  0.195137315372E+01  0.205528223714E+01
  0.216455118561E+01  0.227943691033E+01  0.240020638591E+01  0.252713677101E+01  0.266051549070E+01
  0.280064027394E+01  0.294781913883E+01  0.310237031761E+01  0.326462211216E+01  0.343491267017E+01
  0.361358967071E+01  0.380100990709E+01  0.399753875332E+01  0.420354949956E+01  0.441942254012E+01
  0.464554439629E+01  0.488230655457E+01  0.513010409929E+01  0.538933411651E+01  0.566039384474E+01
  0.594367854553E+01  0.623957906544E+01  0.654847905877E+01  0.687075183833E+01  0.720675681988E+01
  0.755683552368E+01  0.792130709527E+01  0.830046330577E+01  0.869456299113E+01  0.910382588866E+01
  0.952842582925E+01  0.996848324380E+01  0.104240569437E+02  0.108951351376E+02  0.113816256493E+02
  0.118833453083E+02  0.124000084890E+02  0.129312147847E+02  0.134764358137E+02  0.140350011683E+02
  0.146060835350E+02  0.151886830357E+02  0.157816108652E+02  0.163834723296E+02  0.169926494274E+02
  0.176072831566E+02  0.182252557793E+02  0.188441733307E+02  0.194613487257E+02  0.200737858838E+02
  0.206781653770E+02  0.212708321929E+02  0.218477863013E+02  0.224046768193E+02  0.229368006782E+02
  0.234391068142E+02  0.239062070203E+02  0.243323947131E+02  0.247116729768E+02  0.250377933443E+02
  0.253043068459E+02  0.255046289023E+02  0.256321196336E+02  0.256801810945E+02  0.256423728083E+02
  0.255125467287E+02  0.252850023993E+02  0.249546625650E+02  0.245172687956E+02  0.239695957735E+02
  0.233096817467E+02  0.225370712166E+02  0.216530642005E+02  0.206609643445E+02  0.195663157769E+02
  0.183771158687E+02  0.171039880641E+02  0.157602957124E+02  0.143621744938E+02  0.129284577569E+02
  0.114804661161E+02  0.100416303190E+02  0.863691511905E+01  0.729201220953E+01  0.603227284831E+01
  0.488135640385E+01  0.385958055255E+01  0.298197320803E+01  0.225604643106E+01  0.167933945184E+01
  0.123686811235E+01  0.903014955145E+00  0.653402699809E+00  0.468478425053E+00  0.332756059318E+00
  0.234094819491E+00  0.163074292462E+00  0.112461033821E+00  0.767596515348E-01  0.518401363005E-01
  0.346326416632E-01  0.228808277116E-01  0.149451676734E-01  0.964817259291E-02  0.615421491810E-02
  0.387746116363E-02  0.241228737959E-02  0.148140113005E-02  0.897695850818E-03  0.536593218999E-03
  0.316273398670E-03  0.183746632846E-03  0.105183754597E-03  0.593033745620E-04  0.329181979271E-04
  0.179820225940E-04  0.966278222055E-05  0.510549195286E-05  0.265124851887E-05  0.135251256795E-05
  0.677494036830E-06  0.333067790088E-06  0.160622591805E-06  0.759460445708E-07  0.351883964817E-07
  0.159681300649E-07  0.709294031530E-08  0.308223814933E-08  0.130953160727E-08  0.543638176122E-09
  0.220380961477E-09  0.871818102175E-10  0.336336687587E-10  0.126450124962E-10  0.462969339734E-11
  0.164951246661E-11  0.571482617035E-12  0.192379760326E-12  0.628754083810E-13  0.199349333208E-13
  0.612632453331E-14  0.182333457871E-14
 local pseudopotential core
 -0.484189055409E+03 -0.484190198407E+03 -0.484191311321E+03 -0.484192394943E+03 -0.484193450044E+03
 -0.484194477372E+03 -0.484195477659E+03 -0.484196451616E+03 -0.484197399935E+03 -0.484198323290E+03
 -0.484199222339E+03 -0.484200097719E+03 -0.484200950053E+03 -0.484201779947E+03 -0.484202587991E+03
 -0.484203374758E+03 -0.484204140809E+03 -0.484204886688E+03 -0.484205612924E+03 -0.484206320034E+03
 -0.484207008520E+03 -0.484207678871E+03 -0.484208331564E+03 -0.484208967062E+03 -0.484209585816E+03
 -0.484210188266E+03 -0.484210774840E+03 -0.484211345955E+03 -0.484211902015E+03 -0.484212443415E+03
 -0.484212970541E+03 -0.484213483765E+03 -0.484213983452E+03 -0.484214469957E+03 -0.484214943625E+03
 -0.484215404790E+03 -0.484215853781E+03 -0.484216290915E+03 -0.484216716502E+03 -0.484217130845E+03
 -0.484217534235E+03 -0.484217926958E+03 -0.484218309293E+03 -0.484218681510E+03 -0.484219043872E+03
 -0.484219396634E+03 -0.484219740047E+03 -0.484220074352E+03 -0.484220399785E+03 -0.484220716576E+03
 -0.484221024947E+03 -0.484221325115E+03 -0.484221617292E+03 -0.484221901683E+03 -0.484222178487E+03
 -0.484222447899E+03 -0.484222710106E+03 -0.484222965293E+03 -0.484223213637E+03 -0.484223455311E+03
 -0.484223690483E+03 -0.484223919317E+03 -0.484224141972E+03 -0.484224358601E+03 -0.484224569354E+03
 -0.484224774375E+03 -0.484224973806E+03 -0.484225167783E+03 -0.484225356437E+03 -0.484225539898E+03
 -0.484225718289E+03 -0.484225891730E+03 -0.484226060338E+03 -0.484226224225E+03 -0.484226383499E+03
 -0.484226538266E+03 -0.484226688627E+03 -0.484226834680E+03 -0.484226976519E+03 -0.484227114233E+03
 -0.484227247911E+03 -0.484227377636E+03 -0.484227503488E+03 -0.484227625544E+03 -0.484227743878E+03
 -0.484227858558E+03 -0.484227969652E+03 -0.484228077224E+03 -0.484228181332E+03 -0.484228282033E+03
 -0.484228379381E+03 -0.484228473425E+03 -0.484228564212E+03 -0.484228651784E+03 -0.484228736180E+03
 -0.484228817437E+03 -0.484228895587E+03 -0.484228970658E+03 -0.484229042676E+03 -0.484229111661E+03
 -0.484229177632E+03 -0.484229240602E+03 -0.484229300580E+03 -0.484229357572E+03 -0.484229411580E+03
 -0.484229462601E+03 -0.484229510627E+03 -0.484229555647E+03 -0.484229597645E+03 -0.484229636600E+03
 -0.484229672484E+03 -0.484229705268E+03 -0.484229734915E+03 -0.484229761382E+03 -0.484229784622E+03
 -0.484229804580E+03 -0.484229821198E+03 -0.484229834409E+03 -0.484229844140E+03 -0.484229850310E+03
 -0.484229852833E+03 -0.484229851614E+03 -0.484229846548E+03 -0.484229837527E+03 -0.484229824429E+03
 -0.484229807125E+03 -0.484229785477E+03 -0.484229759336E+03 -0.484229728543E+03 -0.484229692929E+03
 -0.484229652310E+03 -0.484229606494E+03 -0.484229555274E+03 -0.484229498431E+03 -0.484229435729E+03
 -0.484229366922E+03 -0.484229291743E+03 -0.484229209913E+03 -0.484229121135E+03 -0.484229025092E+03
 -0.484228921449E+03 -0.484228809852E+03 -0.484228689925E+03 -0.484228561270E+03 -0.484228423466E+03
 -0.484228276066E+03 -0.484228118600E+03 -0.484227950567E+03 -0.484227771441E+03 -0.484227580662E+03
 -0.484227377642E+03 -0.484227161757E+03 -0.484226932348E+03 -0.484226688718E+03 -0.484226430133E+03
 -0.484226155815E+03 -0.484225864944E+03 -0.484225556653E+03 -0.484225230027E+03 -0.484224884100E+03
 -0.484224517852E+03 -0.484224130205E+03 -0.484223720022E+03 -0.484223286104E+03 -0.484222827182E+03
 -0.484222341921E+03 -0.484221828909E+03 -0.484221286657E+03 -0.484220713592E+03 -0.484220108056E+03
 -0.484219468299E+03 -0.484218792474E+03 -0.484218078632E+03 -0.484217324718E+03 -0.484216528560E+03
 -0.484215687872E+03 -0.484214800236E+03 -0.484213863107E+03 -0.484212873795E+03 -0.484211829464E+03
 -0.484210727123E+03 -0.484209563616E+03 -0.484208335612E+03 -0.484207039600E+03 -0.484205671874E+03
 -0.484204228525E+03 -0.484202705429E+03 -0.484201098237E+03 -0.484199402361E+03 -0.484197612961E+03
 -0.484195724931E+03 -0.484193732885E+03 -0.484191631143E+03 -0.484189413712E+03 -0.484187074272E+03
 -0.484184606155E+03 -0.484182002330E+03 -0.484179255377E+03 -0.484176357473E+03 -0.484173300365E+03
 -0.484170075347E+03 -0.484166673237E+03 -0.484163084350E+03 -0.484159298472E+03 -0.484155304827E+03
 -0.484151092051E+03 -0.484146648158E+03 -0.484141960503E+03 -0.484137015753E+03 -0.484131799841E+03
 -0.484126297935E+03 -0.484120494386E+03 -0.484114372693E+03 -0.484107915451E+03 -0.484101104301E+03
 -0.484093919882E+03 -0.484086341774E+03 -0.484078348439E+03 -0.484069917161E+03 -0.484061023985E+03
 -0.484051643644E+03 -0.484041749490E+03 -0.484031313419E+03 -0.484020305791E+03 -0.484008695349E+03
 -0.483996449125E+03 -0.483983532353E+03 -0.483969908367E+03 -0.483955538501E+03 -0.483940381976E+03
 -0.483924395790E+03 -0.483907534593E+03 -0.483889750562E+03 -0.483870993265E+03 -0.483851209522E+03
 -0.483830343252E+03 -0.483808335321E+03 -0.483785123371E+03 -0.483760641649E+03 -0.483734820822E+03
 -0.483707587785E+03 -0.483678865453E+03 -0.483648572552E+03 -0.483616623389E+03 -0.483582927615E+03
 -0.483547389972E+03 -0.483509910033E+03 -0.483470381923E+03 -0.483428694022E+03 -0.483384728663E+03
 -0.483338361804E+03 -0.483289462690E+03 -0.483237893489E+03 -0.483183508922E+03 -0.483126155859E+03
 -0.483065672906E+03 -0.483001889963E+03 -0.482934627765E+03 -0.482863697394E+03 -0.482788899774E+03
 -0.482710025128E+03 -0.482626852423E+03 -0.482539148774E+03 -0.482446668827E+03 -0.482349154104E+03
 -0.482246332323E+03 -0.482137916682E+03 -0.482023605105E+03 -0.481903079452E+03 -0.481776004701E+03
 -0.481642028075E+03 -0.481500778141E+03 -0.481351863860E+03 -0.481194873598E+03 -0.481029374086E+03
 -0.480854909338E+03 -0.480670999519E+03 -0.480477139765E+03 -0.480272798946E+03 -0.480057418386E+03
 -0.479830410524E+03 -0.479591157517E+03 -0.479339009794E+03 -0.479073284552E+03 -0.478793264188E+03
 -0.478498194684E+03 -0.478187283926E+03 -0.477859699965E+03 -0.477514569229E+03 -0.477150974665E+03
 -0.476767953841E+03 -0.476364496976E+03 -0.475939544938E+03 -0.475491987177E+03 -0.475020659620E+03
 -0.474524342529E+03 -0.474001758312E+03 -0.473451569319E+03 -0.472872375603E+03 -0.472262712677E+03
 -0.471621049261E+03 -0.470945785042E+03 -0.470235248451E+03 -0.469487694476E+03 -0.468701302529E+03
 -0.467874174383E+03 -0.467004332197E+03 -0.466089716665E+03 -0.465128185299E+03 -0.464117510882E+03
 -0.463055380131E+03 -0.461939392589E+03 -0.460767059800E+03 -0.459535804800E+03 -0.458242961974E+03
 -0.456885777327E+03 -0.455461409227E+03 -0.453966929675E+03 -0.452399326170E+03 -0.450755504228E+03
 -0.449032290640E+03 -0.447226437534E+03 -0.445334627333E+03 -0.443353478687E+03 -0.441279553473E+03
 -0.439109364969E+03 -0.436839387283E+03 -0.434466066157E+03 -0.431985831253E+03 -0.429395110031E+03
 -0.426690343342E+03 -0.423868002861E+03 -0.420924610492E+03 -0.417856759882E+03 -0.414661140207E+03
 -0.411334562368E+03 -0.407873987814E+03 -0.404276560157E+03 -0.400539639851E+03 -0.396660842165E+03
 -0.392638078804E+03 -0.388469603524E+03 -0.384154062199E+03 -0.379690547850E+03 -0.375078661227E+03
 -0.370318577600E+03 -0.365411120418E+03 -0.360357842426E+03 -0.355161114528E+03 -0.349824221997E+03
 -0.344351466287E+03 -0.338748268042E+03 -0.333021262139E+03 -0.327178367329E+03 -0.321228799153E+03
 -0.315182973283E+03 -0.309052216155E+03 -0.302848165679E+03 -0.296581727182E+03 -0.290261499324E+03
 -0.283891792768E+03 -0.277470833509E+03 -0.270990467173E+03 -0.264439354600E+03 -0.257811623606E+03
 -0.251121578163E+03 -0.244421630632E+03 -0.237810741557E+03 -0.231392024535E+03 -0.225112504517E+03
 -0.218588275824E+03 -0.211382025974E+03 -0.203634269700E+03 -0.197544418101E+03 -0.191820007320E+03
 -0.186397718238E+03 -0.181308699581E+03 -0.176570543340E+03 -0.172192384296E+03 -0.168185543306E+03
 -0.164325561073E+03 -0.159997999087E+03 -0.155787704181E+03 -0.151688223275E+03 -0.147696634022E+03
 -0.143810095766E+03 -0.140025835344E+03 -0.136341158024E+03 -0.132753444835E+03 -0.129260141585E+03
 -0.125858762292E+03 -0.122546887588E+03 -0.119322163278E+03 -0.116182294699E+03 -0.113125049205E+03
 -0.110148252629E+03 -0.107249787838E+03 -0.104427593638E+03 -0.101679663099E+03 -0.990040420035E+02
 -0.963988276132E+02 -0.938621672366E+02 -0.913922569691E+02 -0.889873401779E+02 -0.866457069408E+02
 -0.843656918149E+02 -0.821456734096E+02 -0.799840729783E+02 -0.778793533188E+02 -0.758300176523E+02
 -0.738346085275E+02 -0.718917070258E+02 -0.699999313731E+02 -0.681579362961E+02 -0.663644118422E+02
 -0.646180825493E+02 -0.629177065298E+02 -0.612620745671E+02 -0.596500092691E+02 -0.580803642204E+02
 -0.565520231747E+02 -0.550638992598E+02 -0.536149342006E+02 -0.522040975650E+02 -0.508303860360E+02
 -0.494928226975E+02 -0.481904563379E+02
 pspotential valence only
 -0.377919131238E+03 -0.377920274248E+03 -0.377921387175E+03 -0.377922470810E+03 -0.377923525924E+03
 -0.377924553266E+03 -0.377925553568E+03 -0.377926527541E+03 -0.377927475877E+03 -0.377928399250E+03
 -0.377929298317E+03 -0.377930173717E+03 -0.377931026071E+03 -0.377931855987E+03 -0.377932664054E+03
 -0.377933450846E+03 -0.377934216923E+03 -0.377934962828E+03 -0.377935689093E+03 -0.377936396233E+03
 -0.377937084751E+03 -0.377937755135E+03 -0.377938407863E+03 -0.377939043398E+03 -0.377939662192E+03
 -0.377940264683E+03 -0.377940851301E+03 -0.377941422462E+03 -0.377941978570E+03 -0.377942520022E+03
 -0.377943047202E+03 -0.377943560483E+03 -0.377944060230E+03 -0.377944546799E+03 -0.377945020533E+03
 -0.377945481769E+03 -0.377945930834E+03 -0.377946368047E+03 -0.377946793718E+03 -0.377947208147E+03
 -0.377947611629E+03 -0.377948004450E+03 -0.377948386888E+03 -0.377948759213E+03 -0.377949121689E+03
 -0.377949474572E+03 -0.377949818111E+03 -0.377950152550E+03 -0.377950478125E+03 -0.377950795064E+03
 -0.377951103592E+03 -0.377951403927E+03 -0.377951696279E+03 -0.377951980854E+03 -0.377952257853E+03
 -0.377952527469E+03 -0.377952789893E+03 -0.377953045308E+03 -0.377953293892E+03 -0.377953535820E+03
 -0.377953771261E+03 -0.377954000378E+03 -0.377954223330E+03 -0.377954440274E+03 -0.377954651358E+03
 -0.377954856729E+03 -0.377955056529E+03 -0.377955250895E+03 -0.377955439960E+03 -0.377955623853E+03
 -0.377955802701E+03 -0.377955976624E+03 -0.377956145739E+03 -0.377956310162E+03 -0.377956470002E+03
 -0.377956625365E+03 -0.377956776355E+03 -0.377956923071E+03 -0.377957065609E+03 -0.377957204062E+03
 -0.377957338518E+03 -0.377957469064E+03 -0.377957595782E+03 -0.377957718752E+03 -0.377957838049E+03
 -0.377957953745E+03 -0.377958065911E+03 -0.377958174613E+03 -0.377958279914E+03 -0.377958381874E+03
 -0.377958480548E+03 -0.377958575992E+03 -0.377958668255E+03 -0.377958757384E+03 -0.377958843423E+03
 -0.377958926412E+03 -0.377959006389E+03 -0.377959083388E+03 -0.377959157438E+03 -0.377959228568E+03
 -0.377959296800E+03 -0.377959362155E+03 -0.377959424650E+03 -0.377959484296E+03 -0.377959541104E+03
 -0.377959595077E+03 -0.377959646218E+03 -0.377959694524E+03 -0.377959739987E+03 -0.377959782597E+03
 -0.377959822337E+03 -0.377959859187E+03 -0.377959893123E+03 -0.377959924115E+03 -0.377959952127E+03
 -0.377959977119E+03 -0.377959999047E+03 -0.377960017858E+03 -0.377960033495E+03 -0.377960045896E+03
 -0.377960054991E+03 -0.377960060703E+03 -0.377960062950E+03 -0.377960061640E+03 -0.377960056677E+03
 -0.377960047953E+03 -0.377960035356E+03 -0.377960018761E+03 -0.377959998037E+03 -0.377959973043E+03
 -0.377959943627E+03 -0.377959909628E+03 -0.377959870871E+03 -0.377959827174E+03 -0.377959778339E+03
 -0.377959724157E+03 -0.377959664406E+03 -0.377959598849E+03 -0.377959527234E+03 -0.377959449295E+03
 -0.377959364748E+03 -0.377959273293E+03 -0.377959174612E+03 -0.377959068366E+03 -0.377958954198E+03
 -0.377958831731E+03 -0.377958700561E+03 -0.377958560267E+03 -0.377958410398E+03 -0.377958250480E+03
 -0.377958080011E+03 -0.377957898460E+03 -0.377957705266E+03 -0.377957499835E+03 -0.377957281541E+03
 -0.377957049722E+03 -0.377956803678E+03 -0.377956542670E+03 -0.377956265917E+03 -0.377955972594E+03
 -0.377955661833E+03 -0.377955332712E+03 -0.377954984262E+03 -0.377954615458E+03 -0.377954225218E+03
 -0.377953812401E+03 -0.377953375801E+03 -0.377952914147E+03 -0.377952426096E+03 -0.377951910231E+03
 -0.377951365058E+03 -0.377950788998E+03 -0.377950180386E+03 -0.377949537466E+03 -0.377948858385E+03
 -0.377948141185E+03 -0.377947383804E+03 -0.377946584064E+03 -0.377945739669E+03 -0.377944848193E+03
 -0.377943907081E+03 -0.377942913635E+03 -0.377941865010E+03 -0.377940758202E+03 -0.377939590046E+03
 -0.377938357200E+03 -0.377937056139E+03 -0.377935683146E+03 -0.377934234299E+03 -0.377932705460E+03
 -0.377931092266E+03 -0.377929390113E+03 -0.377927594145E+03 -0.377925699240E+03 -0.377923699995E+03
 -0.377921590711E+03 -0.377919365376E+03 -0.377917017649E+03 -0.377914540843E+03 -0.377911927901E+03
 -0.377909171384E+03 -0.377906263442E+03 -0.377903195796E+03 -0.377899959715E+03 -0.377896545989E+03
 -0.377892944903E+03 -0.377889146212E+03 -0.377885139108E+03 -0.377880912194E+03 -0.377876453447E+03
 -0.377871750188E+03 -0.377866789043E+03 -0.377861555909E+03 -0.377856035907E+03 -0.377850213349E+03
 -0.377844071686E+03 -0.377837593467E+03 -0.377830760284E+03 -0.377823552726E+03 -0.377815950318E+03
 -0.377807931468E+03 -0.377799473406E+03 -0.377790552116E+03 -0.377781142270E+03 -0.377771217160E+03
 -0.377760748616E+03 -0.377749706935E+03 -0.377738060790E+03 -0.377725777146E+03 -0.377712821167E+03
 -0.377699156116E+03 -0.377684743255E+03 -0.377669541733E+03 -0.377653508476E+03 -0.377636598062E+03
 -0.377618762597E+03 -0.377599951579E+03 -0.377580111761E+03 -0.377559186996E+03 -0.377537118089E+03
 -0.377513842626E+03 -0.377489294803E+03 -0.377463405245E+03 -0.377436100809E+03 -0.377407304390E+03
 -0.377376934699E+03 -0.377344906047E+03 -0.377311128104E+03 -0.377275505653E+03 -0.377237938329E+03
 -0.377198320347E+03 -0.377156540208E+03 -0.377112480400E+03 -0.377066017078E+03 -0.377017019730E+03
 -0.376965350820E+03 -0.376910865425E+03 -0.376853410840E+03 -0.376792826171E+03 -0.376728941911E+03
 -0.376661579484E+03 -0.376590550774E+03 -0.376515657632E+03 -0.376436691358E+03 -0.376353432149E+03
 -0.376265648537E+03 -0.376173096786E+03 -0.376075520269E+03 -0.375972648809E+03 -0.375864197999E+03
 -0.375749868482E+03 -0.375629345203E+03 -0.375502296627E+03 -0.375368373922E+03 -0.375227210110E+03
 -0.375078419175E+03 -0.374921595142E+03 -0.374756311116E+03 -0.374582118275E+03 -0.374398544838E+03
 -0.374205094980E+03 -0.374001247720E+03 -0.373786455756E+03 -0.373560144273E+03 -0.373321709705E+03
 -0.373070518455E+03 -0.372805905591E+03 -0.372527173490E+03 -0.372233590456E+03 -0.371924389308E+03
 -0.371598765932E+03 -0.371255877809E+03 -0.370894842526E+03 -0.370514736263E+03 -0.370114592272E+03
 -0.369693399350E+03 -0.369250100314E+03 -0.368783590490E+03 -0.368292716221E+03 -0.367776273404E+03
 -0.367233006082E+03 -0.366661605087E+03 -0.366060706762E+03 -0.365428891785E+03 -0.364764684096E+03
 -0.364066549973E+03 -0.363332897266E+03 -0.362562074829E+03 -0.361752372166E+03 -0.360902019349E+03
 -0.360009187215E+03 -0.359071987913E+03 -0.358088475829E+03 -0.357056648933E+03 -0.355974450628E+03
 -0.354839772120E+03 -0.353650455406E+03 -0.352404296923E+03 -0.351099051938E+03 -0.349732439756E+03
 -0.348302149818E+03 -0.346805848782E+03 -0.345241188662E+03 -0.343605816139E+03 -0.341897383111E+03
 -0.340113558601E+03 -0.338252042112E+03 -0.336310578541E+03 -0.334286974738E+03 -0.332179117822E+03
 -0.329984995355E+03 -0.327702717464E+03 -0.325330541005E+03 -0.322866895860E+03 -0.320310413447E+03
 -0.317659957517E+03 -0.314914657298E+03 -0.312073943062E+03 -0.309137584139E+03 -0.306105729444E+03
 -0.302978950535E+03 -0.299758287233E+03 -0.296445295813E+03 -0.293042099759E+03 -0.289551443041E+03
 -0.285976745797E+03 -0.282322162170E+03 -0.278592639788E+03 -0.274793979876E+03 -0.270932896125E+03
 -0.267017068779E+03 -0.263055187568E+03 -0.259056972083E+03 -0.255033149669E+03 -0.250995356891E+03
 -0.246955908989E+03 -0.242927351550E+03 -0.238921674828E+03 -0.234949054170E+03 -0.231016030662E+03
 -0.227123255872E+03 -0.223263396103E+03 -0.219420519370E+03 -0.215572966700E+03 -0.211701689334E+03
 -0.207804676185E+03 -0.203914667235E+03 -0.200107474320E+03 -0.196459609559E+03 -0.192888255696E+03
 -0.188976869356E+03 -0.184253420528E+03 -0.178822634404E+03 -0.174848358024E+03 -0.171004341361E+03
 -0.167196991973E+03 -0.163432505369E+03 -0.159710578447E+03 -0.156031018885E+03 -0.152405514165E+03
 -0.148855291876E+03 -0.145402052418E+03 -0.142020677118E+03 -0.138706859081E+03 -0.135459734249E+03
 -0.132278439571E+03 -0.129162121837E+03 -0.126109905752E+03 -0.123120911644E+03 -0.120194237044E+03
 -0.117328944062E+03 -0.114524055837E+03 -0.111778549917E+03 -0.109091354484E+03 -0.106461350833E+03
 -0.103887379783E+03 -0.101368252721E+03 -0.989027671003E+02 -0.964897251922E+02 -0.941279543339E+02
 -0.918163272317E+02 -0.895537804914E+02 -0.873393299998E+02 -0.851720834820E+02 -0.830512412550E+02
 -0.809761101508E+02 -0.789460901105E+02 -0.769606742469E+02 -0.750194390309E+02 -0.731220328494E+02
 -0.712681620440E+02 -0.694575744634E+02 -0.676900404750E+02 -0.659653315537E+02 -0.642831967792E+02
 -0.626433381395E+02 -0.610453860490E+02 -0.594888770417E+02 -0.579732358882E+02 -0.564977643026E+02
 -0.550616378819E+02 -0.536639119941E+02 -0.523035361947E+02 -0.509793756489E+02 -0.496902372129E+02
 -0.484348974484E+02 -0.472121299285E+02
 core charge-density (pseudized)
  0.342511466960E-08  0.361274649225E-08  0.381065700744E-08  0.401940929405E-08  0.423959727710E-08
  0.447184741752E-08  0.471682049449E-08  0.497521348547E-08  0.524776154915E-08  0.553524011710E-08
  0.583846709991E-08  0.615830521429E-08  0.649566443760E-08  0.685150459680E-08  0.722683809932E-08
  0.762273281344E-08  0.804031510653E-08  0.848077304968E-08  0.894535979790E-08  0.943539715552E-08
  0.995227933685E-08  0.104974769329E-07  0.110725410953E-07  0.116791079497E-07  0.123189032507E-07
  0.129937472914E-07  0.137055600830E-07  0.144563668172E-07  0.152483036277E-07  0.160836236686E-07
  0.169647035239E-07  0.178940499699E-07  0.188743071072E-07  0.199082638829E-07  0.209988620262E-07
  0.221492044174E-07  0.233625639163E-07  0.246423926739E-07  0.259923319537E-07  0.274162224920E-07
  0.289181154252E-07  0.305022838155E-07  0.321732348082E-07  0.339357224554E-07  0.357947612418E-07
  0.377556403510E-07  0.398239387142E-07  0.420055408831E-07  0.443066537715E-07  0.467338243153E-07
  0.492939580987E-07  0.519943390021E-07  0.548426499246E-07  0.578469946435E-07  0.610159208701E-07
  0.643584445689E-07  0.678840756091E-07  0.716028448211E-07  0.755253325355E-07  0.796626986850E-07
  0.840267145558E-07  0.886297962783E-07  0.934850401520E-07  0.986062599061E-07  0.104008026001E-06
  0.109705707082E-06  0.115715513708E-06  0.122054544465E-06  0.128740834623E-06  0.135793407439E-06
  0.143232328287E-06  0.151078761743E-06  0.159355031798E-06  0.168084685376E-06  0.177292559328E-06
  0.187004851088E-06  0.197249193216E-06  0.208054732010E-06  0.219452210430E-06  0.231474055567E-06
  0.244154470899E-06  0.257529533602E-06  0.271637297196E-06  0.286517899806E-06  0.302213678362E-06
  0.318769289050E-06  0.336231834358E-06  0.354650997093E-06  0.374079181727E-06  0.394571663493E-06
  0.416186745648E-06  0.438985925346E-06  0.463034068604E-06  0.488399594848E-06  0.515154671570E-06
  0.543375419651E-06  0.573142129923E-06  0.604539491603E-06  0.637656833237E-06  0.672588376841E-06
  0.709433505968E-06  0.748297048454E-06  0.789289574656E-06  0.832527712025E-06  0.878134476913E-06
  0.926239624554E-06  0.976980018218E-06  0.103050001858E-05  0.108695189444E-05  0.114649625589E-05
  0.120930251128E-05  0.127554934916E-05  0.134542524664E-05  0.141912900559E-05  0.149687031822E-05
  0.157887036367E-05  0.166536243717E-05  0.175659261382E-05  0.185282044859E-05  0.195431971473E-05
  0.206137918266E-05  0.217430344139E-05  0.229341376510E-05  0.241904902707E-05  0.255156666371E-05
  0.269134369138E-05  0.283877777890E-05  0.299428837885E-05  0.315831792075E-05  0.333133306967E-05
  0.351382605370E-05  0.370631606419E-05  0.390935073266E-05  0.412350768855E-05  0.434939620235E-05
  0.458765891870E-05  0.483897368435E-05  0.510405547630E-05  0.538365843551E-05  0.567857801194E-05
  0.598965322711E-05  0.631776906054E-05  0.666385896684E-05  0.702890753069E-05  0.741395326715E-05
  0.782009157529E-05  0.824847785362E-05  0.870033078604E-05  0.917693580765E-05  0.967964876044E-05
  0.102098997490E-04  0.107691972074E-04  0.113591321886E-04  0.119813828888E-04  0.126377194195E-04
  0.133300088402E-04  0.140602204678E-04  0.148304314749E-04  0.156428327963E-04  0.164997353572E-04
  0.174035766431E-04  0.183569276291E-04  0.193625000881E-04  0.204231542993E-04  0.215419071775E-04
  0.227219408485E-04  0.239666116925E-04  0.252794598825E-04  0.266642194444E-04  0.281248288675E-04
  0.296654422946E-04  0.312904413247E-04  0.330044474606E-04  0.348123352365E-04  0.367192460645E-04
  0.387306028362E-04  0.408521253235E-04  0.430898464202E-04  0.454501292713E-04  0.479396853376E-04
  0.505655934470E-04  0.533353198866E-04  0.562567395907E-04  0.593381584862E-04  0.625883370574E-04
  0.660165151963E-04  0.696324384085E-04  0.734463854485E-04  0.774691974620E-04  0.817123087161E-04
  0.861877790051E-04  0.909083278213E-04  0.958873703865E-04  0.101139055646E-03  0.106678306331E-03
  0.112520861197E-03  0.118683319568E-03  0.125183188291E-03  0.132038931252E-03  0.139270021575E-03
  0.146896996662E-03  0.154941516211E-03  0.163426423387E-03  0.172375809312E-03  0.181815081037E-03
  0.191771033207E-03  0.202271923599E-03  0.213347552739E-03  0.225029347833E-03  0.237350451216E-03
  0.250345813581E-03  0.264052292234E-03  0.278508754635E-03  0.293756187510E-03  0.309837811834E-03
  0.326799203977E-03  0.344688423359E-03  0.363556146928E-03  0.383455810848E-03  0.404443759743E-03
  0.426579403908E-03  0.449925384901E-03  0.474547749926E-03  0.500516135493E-03  0.527903960795E-03
  0.556788631326E-03  0.587251753245E-03  0.619379359029E-03  0.653262144993E-03  0.688995721260E-03
  0.726680874806E-03  0.766423846231E-03  0.808336620916E-03  0.852537235289E-03  0.899150098912E-03
  0.948306333168E-03  0.100014412732E-02  0.105480911280E-02  0.111245475650E-02  0.117324277404E-02
  0.123734356394E-02  0.130493666342E-02  0.137621122716E-02  0.145136652967E-02  0.153061249257E-02
  0.161417023759E-02  0.170227266664E-02  0.179516506976E-02  0.189310576231E-02  0.199636675240E-02
  0.210523443970E-02  0.222001034692E-02  0.234101188483E-02  0.246857315236E-02  0.260304577248E-02
  0.274479976531E-02  0.289422445931E-02  0.305172944169E-02  0.321774554895E-02  0.339272589845E-02
  0.357714696178E-02  0.377150968066E-02  0.397634062579E-02  0.419219319923E-02  0.441964888019E-02
  0.465931851451E-02  0.491184364725E-02  0.517789789790E-02  0.545818837719E-02  0.575345714421E-02
  0.606448270182E-02  0.639208152816E-02  0.673710964115E-02  0.710046419241E-02  0.748308508609E-02
  0.788595661741E-02  0.831010912449E-02  0.875662064619E-02  0.922661857732E-02  0.972128131112E-02
  0.102418398576E-01  0.107895794242E-01  0.113658409441E-01  0.119720225340E-01  0.126095808627E-01
  0.132800324069E-01  0.139849545704E-01  0.147259866370E-01  0.155048305260E-01  0.163232513144E-01
  0.171830774845E-01  0.180862008545E-01  0.190345761399E-01  0.200302200922E-01  0.210752101517E-01
  0.221716825487E-01  0.233218297759E-01  0.245278973508E-01  0.257921797771E-01  0.271170156053E-01
  0.285047814833E-01  0.299578850791E-01  0.314787567462E-01  0.330698397902E-01  0.347335791875E-01
  0.364724085897E-01  0.382887354412E-01  0.401849240199E-01  0.421632762028E-01  0.442260097442E-01
  0.463752338426E-01  0.486129217646E-01  0.509408802816E-01  0.533607156694E-01  0.558737960169E-01
  0.584812095856E-01  0.611837189661E-01  0.639817107848E-01  0.668751407248E-01  0.698634736494E-01
  0.729456186435E-01  0.761198588291E-01  0.793837758656E-01  0.827341691116E-01  0.861669695120E-01
  0.896771483792E-01  0.932586213651E-01  0.969041480774E-01  0.100605227977E+00  0.104351993414E+00
  0.108133100911E+00  0.111935622104E+00  0.115744936094E+00  0.119544625335E+00  0.123316377649E+00
  0.127039897427E+00  0.130692829626E+00  0.134250700769E+00  0.137686881788E+00  0.140972578246E+00
  0.144076854150E+00  0.146966696339E+00  0.149607127087E+00  0.151961373285E+00  0.153991101112E+00
  0.155656725600E+00  0.156917804761E+00  0.157733527926E+00  0.158063307612E+00  0.157867483371E+00
  0.157108144661E+00  0.155750077556E+00  0.153761837037E+00  0.151116942355E+00  0.147795187489E+00
  0.143784051677E+00  0.139080186320E+00  0.133690944004E+00  0.127635902817E+00  0.120948324561E+00
  0.113676468834E+00  0.105884666583E+00  0.976540369359E-01  0.890827106305E-01  0.802854032178E-01
  0.713921628633E-01  0.625461030136E-01  0.538999220233E-01  0.456110133216E-01  0.378349848315E-01
  0.307174398437E-01  0.243839287538E-01  0.189280678051E-01  0.143979431779E-01  0.107810819945E-01
  0.798883815104E-02  0.586788952942E-02  0.427149266983E-02  0.308093108078E-02  0.220135965009E-02
  0.155777858596E-02  0.109149557808E-02  0.757063457735E-03  0.519667779252E-03  0.352929677426E-03
  0.237083630217E-03  0.157486897197E-03  0.103416894395E-03  0.671140886598E-04  0.430306696895E-04
  0.272488292426E-04  0.170365666047E-04  0.105132239364E-04  0.640118568385E-05  0.384416974764E-05
  0.227617216173E-05  0.132833210832E-05  0.763733018944E-06  0.432453847320E-06  0.241060901233E-06
  0.132228030363E-06  0.713421548146E-07  0.378447945641E-07  0.197292016932E-07  0.101031589273E-07
  0.507977525267E-08  0.250646117814E-08  0.121308185066E-08  0.575584380796E-09  0.267601283665E-09
  0.121840401284E-09  0.542968791995E-10  0.236694356918E-10  0.100872280364E-10  0.420010563378E-11
  0.170756998088E-11  0.677398162064E-12  0.262038852570E-12  0.987743359652E-13  0.362552962058E-13
  0.129488563470E-13  0.449675506422E-14  0.151719600107E-14  0.496954979995E-15  0.157897405534E-15
  0.486246557261E-16  0.145008634781E-16
 pseudo wavefunction
  0.490149380708E-12  0.530972485179E-12  0.575195626291E-12  0.623101983122E-12  0.674998319905E-12
  0.731216950365E-12  0.792117865664E-12  0.858091039569E-12  0.929558925620E-12  0.100697916227E-11
  0.109084750334E-11  0.118170099253E-11  0.128012140233E-11  0.138673895935E-11  0.150223637994E-11
  0.162735324188E-11  0.176289072021E-11  0.190971671749E-11  0.206877142134E-11  0.224107332483E-11
  0.242772574836E-11  0.262992390461E-11  0.284896255203E-11  0.308624428571E-11  0.334328851874E-11
  0.362174121168E-11  0.392338541230E-11  0.425015267320E-11  0.460413542029E-11  0.498760035150E-11
  0.540300295138E-11  0.585300321454E-11  0.634048267875E-11  0.686856287657E-11  0.744062532383E-11
  0.806033317287E-11  0.873165466922E-11  0.945888856188E-11  0.102466916300E-10  0.111001085022E-10
  0.120246039594E-10  0.130260979279E-10  0.141110033872E-10  0.152862674353E-10  0.165594157730E-10
  0.179386008951E-10  0.194326542931E-10  0.210511430078E-10  0.228044308905E-10  0.247037449669E-10
  0.267612473287E-10  0.289901130122E-10  0.314046143637E-10  0.340202124308E-10  0.368536559662E-10
  0.399230886767E-10  0.432481654045E-10  0.468501779856E-10  0.507521915899E-10  0.549791924167E-10
  0.595582476920E-10  0.645186789906E-10  0.698922499940E-10  0.757133698866E-10  0.820193136910E-10
  0.888504609559E-10  0.962505543219E-10  0.104266979624E-09  0.112951069321E-09  0.122358431201E-09
  0.132549304456E-09  0.143588945421E-09  0.155548045435E-09  0.168503183508E-09  0.182537316684E-09
  0.197740311250E-09  0.214209518184E-09  0.232050396537E-09  0.251377188720E-09  0.272313652054E-09
  0.294993851229E-09  0.319563016775E-09  0.346178475033E-09  0.375010655573E-09  0.406244182526E-09
  0.440079056796E-09  0.476731936754E-09  0.516437525576E-09  0.559450074143E-09  0.606045009104E-09
  0.656520696538E-09  0.711200352509E-09  0.770434112734E-09  0.834601274640E-09  0.904112726141E-09
  0.979413576711E-09  0.106098600758E-08  0.114935235932E-08  0.124507847658E-08  0.134877733140E-08
  0.146111294827E-08  0.158280465615E-08  0.171463169454E-08  0.185743820326E-08  0.201213862776E-08
  0.217972357462E-08  0.236126615472E-08  0.255792885478E-08  0.277097098107E-08  0.300175672323E-08
  0.325176388953E-08  0.352259336984E-08  0.381597938651E-08  0.413380059921E-08  0.447809213449E-08
  0.485105861731E-08  0.525508828785E-08  0.569276829411E-08  0.616690125808E-08  0.668052322164E-08
  0.723692308715E-08  0.783966367705E-08  0.849260454745E-08  0.919992670173E-08  0.996615936239E-08
  0.107962089726E-07  0.116953906129E-07  0.126694620351E-07  0.137246605295E-07  0.148677428635E-07
  0.161060285462E-07  0.174474466958E-07  0.189005868109E-07  0.204747537698E-07  0.221800274097E-07
  0.240273270694E-07  0.260284815054E-07  0.281963046317E-07  0.305446775675E-07  0.330886375170E-07
  0.358444740522E-07  0.388298334132E-07  0.420638314956E-07  0.455671762465E-07  0.493623002537E-07
  0.534735043777E-07  0.579271133437E-07  0.627516442918E-07  0.679779893634E-07  0.736396134929E-07
  0.797727686700E-07  0.864167260460E-07  0.936140273674E-07  0.101410757348E-06  0.109856838724E-06
  0.119006351874E-06  0.128917881060E-06  0.139654889501E-06  0.151286125669E-06  0.163886063429E-06
  0.177535378823E-06  0.192321466554E-06  0.208338999477E-06  0.225690534678E-06  0.244487170008E-06
  0.264849255297E-06  0.286907162772E-06  0.310802121623E-06  0.336687122055E-06  0.364727894608E-06
  0.395103971011E-06  0.428009833348E-06  0.463656158909E-06  0.502271168653E-06  0.544102087950E-06
  0.589416728901E-06  0.638505204390E-06  0.691681784806E-06  0.749286909318E-06  0.811689364559E-06
  0.879288644642E-06  0.952517507600E-06  0.103184474460E-05  0.111777817958E-05  0.121086791860E-05
  0.131170986944E-05  0.142094955425E-05  0.153928623929E-05  0.166747740836E-05  0.180634360838E-05
  0.195677369810E-05  0.211973053345E-05  0.229625712578E-05  0.248748331238E-05  0.269463298173E-05
  0.291903189969E-05  0.316211618649E-05  0.342544149858E-05  0.371069297385E-05  0.401969600378E-05
  0.435442790089E-05  0.471703053610E-05  0.510982402629E-05  0.553532155938E-05  0.599624545108E-05
  0.649554453576E-05  0.703641300186E-05  0.762231079163E-05  0.825698569499E-05  0.894449727777E-05
  0.968924279638E-05  0.104959852633E-04  0.113698838418E-04  0.123165267618E-04  0.133419669671E-04
  0.144527607180E-04  0.156560093947E-04  0.169594047662E-04  0.183712780100E-04  0.199006527936E-04
  0.215573027515E-04  0.233518137219E-04  0.252956511338E-04  0.274012329705E-04  0.296820087674E-04
  0.321525451416E-04  0.348286183901E-04  0.377273147369E-04  0.408671388584E-04  0.442681313658E-04
  0.479519959776E-04  0.519422371789E-04  0.562643092222E-04  0.609457773997E-04  0.660164925880E-04
  0.715087801480E-04  0.774576443508E-04  0.839009895913E-04  0.908798597558E-04  0.984386972164E-04
  0.106625623042E-03  0.115492740145E-03  0.125096461213E-03  0.135497863430E-03  0.146763072136E-03
  0.158963675754E-03  0.172177174500E-03  0.186487465551E-03  0.201985367622E-03  0.218769188046E-03
  0.236945335766E-03  0.256628983850E-03  0.277944785455E-03  0.301027647439E-03  0.326023566133E-03
  0.353090530148E-03  0.382399495422E-03  0.414135438112E-03  0.448498491331E-03  0.485705172186E-03
  0.525989706004E-03  0.569605455151E-03  0.616826460332E-03  0.667949102837E-03  0.723293896764E-03
  0.783207420840E-03  0.848064400114E-03  0.918269948465E-03  0.994261983544E-03  0.107651382651E-02
  0.116553699968E-02  0.126188423588E-02  0.136615271437E-02  0.147898753857E-02  0.160108547208E-02
  0.173319895010E-02  0.187614038410E-02  0.203078677866E-02  0.219808467998E-02  0.237905547634E-02
  0.257480107155E-02  0.278650995306E-02  0.301546367680E-02  0.326304379139E-02  0.353073922438E-02
  0.382015415355E-02  0.413301638563E-02  0.447118626497E-02  0.483666613308E-02  0.523161035953E-02
  0.565833596234E-02  0.611933383404E-02  0.661728058666E-02  0.715505102486E-02  0.773573125222E-02
  0.836263240962E-02  0.903930503816E-02  0.976955405046E-02  0.105574542847E-01  0.114073666040E-01
  0.123239544900E-01  0.133122010637E-01  0.143774264486E-01  0.155253053690E-01  0.167618848508E-01
  0.180936018680E-01  0.195273007390E-01  0.210702500470E-01  0.227301588125E-01  0.245151916002E-01
  0.264339821912E-01  0.284956453897E-01  0.307097864704E-01  0.330865076965E-01  0.356364112615E-01
  0.383705979162E-01  0.413006604463E-01  0.444386710644E-01  0.477971616621E-01  0.513890957531E-01
  0.552278308058E-01  0.593270695350E-01  0.637007985811E-01  0.683632128679E-01  0.733286237887E-01
  0.786113492390E-01  0.842255833833E-01  0.901852439393E-01  0.965037946689E-01  0.103194040714E+00
  0.110267894397E+00  0.117736109151E+00  0.125607979347E+00  0.133891004003E+00  0.142590512648E+00
  0.151709252055E+00  0.161246933175E+00  0.171199738361E+00  0.181559789978E+00  0.192314582746E+00
  0.203446383707E+00  0.214931605521E+00  0.226740161039E+00  0.238834809654E+00  0.251170508886E+00
  0.263693788088E+00  0.276342164881E+00  0.289043629113E+00  0.301716223585E+00  0.314267755442E+00
  0.326595676902E+00  0.338587178567E+00  0.350119542754E+00  0.361060807722E+00  0.371270795835E+00
  0.380602559105E+00  0.388904293496E+00  0.396021768078E+00  0.401801305609E+00  0.406093336614E+00
  0.408756528242E+00  0.409662461319E+00  0.408700792999E+00  0.405784797661E+00  0.400857124780E+00
  0.393895549816E+00  0.384918423749E+00  0.373989451098E+00  0.361221348861E+00  0.346777865547E+00
  0.330873578104E+00  0.313770845679E+00  0.295773295674E+00  0.277215265333E+00  0.258446738807E+00
  0.239813524405E+00  0.221632728077E+00  0.204164012690E+00  0.187577697342E+00  0.171926851089E+00
  0.157195993839E+00  0.143366111396E+00  0.130415866064E+00  0.118321641086E+00  0.107057722642E+00
  0.965964976146E-01  0.869086647506E-01  0.779634568461E-01  0.697288708011E-01  0.621719028971E-01
  0.552587862484E-01  0.489552276080E-01  0.432266408452E-01  0.380383745331E-01  0.333559313692E-01
  0.291451773184E-01  0.253725386151E-01  0.220051849528E-01  0.190111973824E-01  0.163597196180E-01
  0.140210916315E-01  0.119669646123E-01  0.101703965990E-01  0.860592834509E-02  0.724963930236E-02
  0.607918389675E-02  0.507380867740E-02  0.421435120870E-02  0.348322193277E-02  0.286437049989E-02
  0.234323829724E-02  0.190669907435E-02  0.154298966609E-02  0.124163285367E-02  0.993354381214E-03
  0.789996071541E-03  0.624426863309E-03  0.490453434450E-03  0.382731891270E-03  0.296681798447E-03
  0.228403611281E-03  0.174600356776E-03  0.132504202225E-03  0.998083556677E-04  0.746045667893E-04
  0.553263425094E-04  0.406978598228E-04
 ae wavefunction
  0.124039639296E-08  0.133663118788E-08  0.143963690742E-08  0.154993782436E-08  0.166809582142E-08
  0.179471331829E-08  0.193043641287E-08  0.207595825590E-08  0.223202267452E-08  0.239942806690E-08
  0.257903158691E-08  0.277175364342E-08  0.297858273739E-08  0.320058066333E-08  0.343888810578E-08
  0.369473065651E-08  0.396942529174E-08  0.426438734026E-08  0.458113798214E-08  0.492131232004E-08
  0.528666806893E-08  0.567909490775E-08  0.610062455167E-08  0.655344158980E-08  0.703989517435E-08
  0.756251157407E-08  0.812400774020E-08  0.872730587765E-08  0.937554916454E-08  0.100721186797E-07
  0.108206516354E-07  0.116250610360E-07  0.124895568353E-07  0.134186687626E-07  0.144172709022E-07
  0.154906081897E-07  0.166443249731E-07  0.178844957911E-07  0.192176585502E-07  0.206508502976E-07
  0.221916457779E-07  0.238481990073E-07  0.256292880940E-07  0.275443635729E-07  0.296036005223E-07
  0.318179547667E-07  0.341992234885E-07  0.367601106013E-07  0.395142972582E-07  0.424765179057E-07
  0.456626423240E-07  0.490897641284E-07  0.527762962471E-07  0.567420739303E-07  0.610084658911E-07
  0.655984942253E-07  0.705369638117E-07  0.758506019481E-07  0.815682090411E-07  0.877208212318E-07
  0.943418859116E-07  0.101467451158E-06  0.109136370207E-06  0.117390522155E-06  0.126275050205E-06
  0.135838618851E-06  0.146133691512E-06  0.157216830275E-06  0.169149019491E-06  0.181996015166E-06
  0.195828722192E-06  0.210723601639E-06  0.226763110601E-06  0.244036177064E-06  0.262638712754E-06
  0.282674166924E-06  0.304254124393E-06  0.327498951364E-06  0.352538492970E-06  0.379512826456E-06
  0.408573074816E-06  0.439882285335E-06  0.473616378675E-06  0.509965173764E-06  0.549133494880E-06
  0.591342367368E-06  0.636830309188E-06  0.685854725860E-06  0.738693417351E-06  0.795646205555E-06
  0.857036692371E-06  0.923214158627E-06  0.994555615196E-06  0.107146801866E-05  0.115439066440E-05
  0.124379777175E-05  0.134020127616E-05  0.144415384526E-05  0.155625213667E-05  0.167714031677E-05
  0.180751386158E-05  0.194812366191E-05  0.209978045754E-05  0.226335962637E-05  0.243980635698E-05
  0.263014123529E-05  0.283546627823E-05  0.305697144998E-05  0.329594169938E-05  0.355376455992E-05
  0.383193835693E-05  0.413208107036E-05  0.445593990512E-05  0.480540162531E-05  0.518250371244E-05
  0.558944641312E-05  0.602860574778E-05  0.650254755296E-05  0.701404264370E-05  0.756608317991E-05
  0.816190033437E-05  0.880498336323E-05  0.949910019123E-05  0.102483196272E-04  0.110570353424E-04
  0.119299917444E-04  0.128723119000E-04  0.138895276633E-04  0.149876121828E-04  0.161730149724E-04
  0.174526997460E-04  0.188341852296E-04  0.203255891819E-04  0.219356758723E-04  0.236739072827E-04
  0.255504983204E-04  0.275764763501E-04  0.297637453787E-04  0.321251552471E-04  0.346745762132E-04
  0.374269793384E-04  0.403985231169E-04  0.436066468256E-04  0.470701711011E-04  0.508094062912E-04
  0.548462691679E-04  0.592044086299E-04  0.639093410684E-04  0.689885961212E-04  0.744718735864E-04
  0.803912123283E-04  0.867811720633E-04  0.936790289761E-04  0.101124986186E-03  0.109162400154E-03
  0.117838024187E-03  0.127202270306E-03  0.137309490775E-03  0.148218280752E-03  0.159991803550E-03
  0.172698140141E-03  0.186410664633E-03  0.201208447559E-03  0.217176688948E-03  0.234407183261E-03
  0.252998818432E-03  0.273058111381E-03  0.294699782522E-03  0.318047371934E-03  0.343233900074E-03
  0.370402576011E-03  0.399707556432E-03  0.431314758783E-03  0.465402732171E-03  0.502163589824E-03
  0.541804007147E-03  0.584546289634E-03  0.630629515136E-03  0.680310755222E-03  0.733866380647E-03
  0.791593456180E-03  0.853811230339E-03  0.920862725848E-03  0.993116436905E-03  0.107096813968E-02
  0.115484282274E-02  0.124519674432E-02  0.134251962389E-02  0.144733697545E-02  0.156021259060E-02
  0.168175117950E-02  0.181260117827E-02  0.195345773165E-02  0.210506585988E-02  0.226822381933E-02
  0.244378666616E-02  0.263267003317E-02  0.283585412952E-02  0.305438797363E-02  0.328939386950E-02
  0.354207213678E-02  0.381370610505E-02  0.410566738247E-02  0.441942140927E-02  0.475653330590E-02
  0.511867402582E-02  0.550762682225E-02  0.592529403781E-02  0.637370422545E-02  0.685501960820E-02
  0.737154388465E-02  0.792573038553E-02  0.852019058622E-02  0.915770297787E-02  0.984122229879E-02
  0.105738891256E-01  0.113590398212E-01  0.122002168356E-01  0.131011793504E-01  0.140659142575E-01
  0.150986474585E-01  0.162038554651E-01  0.173862772811E-01  0.186509265391E-01  0.200031038605E-01
  0.214484094034E-01  0.229927555561E-01  0.246423797287E-01  0.264038571878E-01  0.282841138730E-01
  0.302904391265E-01  0.324304982578E-01  0.347123448607E-01  0.371444327868E-01  0.397356276741E-01
  0.424952179191E-01  0.454329249715E-01  0.485589128202E-01  0.518837965295E-01  0.554186496740E-01
  0.591750105058E-01  0.631648866757E-01  0.674007583094E-01  0.718955792203E-01  0.766627760113E-01
  0.817162447855E-01  0.870703451492E-01  0.927398911511E-01  0.987401387624E-01  0.105086769481E+00
  0.111795869625E+00  0.118883904911E+00  0.126367689930E+00  0.134264352227E+00  0.142591290744E+00
  0.151366128509E+00  0.160606659490E+00  0.170330789623E+00  0.180556472055E+00  0.191301636594E+00
  0.202584113360E+00  0.214421550484E+00  0.226831325653E+00  0.239830451174E+00  0.253435472266E+00
  0.267662358279E+00  0.282526386697E+00  0.298042019863E+00  0.314222774498E+00  0.331081084181E+00
  0.348628155041E+00  0.366873814961E+00  0.385826356709E+00  0.405492375471E+00  0.425876601403E+00
  0.446981727919E+00  0.468808236643E+00  0.491354220032E+00  0.514615202944E+00  0.538583964520E+00
  0.563250361992E+00  0.588601158198E+00  0.614619854722E+00  0.641286532807E+00  0.668577704288E+00
  0.696466174925E+00  0.724920922607E+00  0.753906992994E+00  0.783385415097E+00  0.813313139453E+00
  0.843643001422E+00  0.874323712341E+00  0.905299881282E+00  0.936512070581E+00  0.967896888539E+00
  0.999387123176E+00  0.103091192103E+01  0.106239701419E+01  0.109376499648E+01  0.112493564435E+01
  0.115582626901E+01  0.118635207369E+01  0.121642647569E+01  0.124596134383E+01  0.127486710581E+01
  0.130305270880E+01  0.133042546967E+01  0.135689092639E+01  0.138235286790E+01  0.140671373466E+01
  0.142987550094E+01  0.145174097517E+01  0.147221528389E+01  0.149120725768E+01  0.150863054321E+01
  0.152440442239E+01  0.153845442304E+01  0.155071282244E+01  0.156111911223E+01  0.156962045154E+01
  0.157617210230E+01  0.158073782390E+01  0.158329020052E+01  0.158381087782E+01  0.158229069415E+01
  0.157872970037E+01  0.157313707033E+01  0.156553090879E+01  0.155593796836E+01  0.154439328754E+01
  0.153093976375E+01  0.151562767401E+01  0.149851415733E+01  0.147966266923E+01  0.145914242128E+01
  0.143702781419E+01  0.141339787323E+01  0.138833569391E+01  0.136192790137E+01  0.133426412935E+01
  0.130543651897E+01  0.127553923926E+01  0.124466802771E+01  0.121291974970E+01  0.118039197473E+01
  0.114718256560E+01  0.111338928095E+01  0.107910938722E+01  0.104443928224E+01  0.100947413073E+01
  0.974307515885E+00  0.939031109906E+00  0.903734368727E+00  0.868504253628E+00  0.833424980879E+00
  0.798577796030E+00  0.764040765204E+00  0.729888570735E+00  0.696192295438E+00  0.663019181122E+00
  0.630432353097E+00  0.598490516342E+00  0.567247645683E+00  0.536752709889E+00  0.507049477302E+00
  0.478176443852E+00  0.450166903569E+00  0.423049150568E+00  0.396846775222E+00  0.371578998959E+00
  0.347261016096E+00  0.323904263096E+00  0.301516658199E+00  0.280102767967E+00  0.259663929811E+00
  0.240198343104E+00  0.221701144233E+00  0.204164478346E+00  0.187577577446E+00  0.171926851089E+00
  0.157195993839E+00  0.143366111396E+00  0.130415866064E+00  0.118321641086E+00  0.107057722642E+00
  0.965964976146E-01  0.869086647506E-01  0.779634568461E-01  0.697288708011E-01  0.621719028971E-01
  0.552587862484E-01  0.489552276080E-01  0.432266408452E-01  0.380383745331E-01  0.333559313692E-01
  0.291451773184E-01  0.253725386151E-01  0.220051849528E-01  0.190111973824E-01  0.163597196180E-01
  0.140210916315E-01  0.119669646123E-01  0.101703965990E-01  0.860592834509E-02  0.724963930236E-02
  0.607918389675E-02  0.507380867740E-02  0.421435120870E-02  0.348322193277E-02  0.286437049989E-02
  0.234323829724E-02  0.190669907435E-02  0.154298966609E-02  0.124163285367E-02  0.993354381214E-03
  0.789996071541E-03  0.624426863309E-03  0.490453434450E-03  0.382731891270E-03  0.296681798447E-03
  0.228403611281E-03  0.174600356776E-03  0.132504202225E-03  0.998083556677E-04  0.746045667893E-04
  0.553263425094E-04  0.406978598228E-04
 pseudo wavefunction
  0.520025379627E-13  0.563336768768E-13  0.610255436530E-13  0.661081822574E-13  0.716141389302E-13
  0.775786705922E-13  0.840399706103E-13  0.910394133645E-13  0.986218191861E-13  0.106835741360E-12
  0.115733777032E-12  0.125372904011E-12  0.135814845620E-12  0.147126465935E-12  0.159380197948E-12
  0.172654507382E-12  0.187034395137E-12  0.202611941594E-12  0.219486896235E-12  0.237767316387E-12
  0.257570259154E-12  0.279022530983E-12  0.302261499660E-12  0.327435973930E-12  0.354707156383E-12
  0.384249675704E-12  0.416252704884E-12  0.450921172584E-12  0.488477075370E-12  0.529160899255E-12
  0.573233159625E-12  0.620976069433E-12  0.672695346323E-12  0.728722170266E-12  0.789415304244E-12
  0.855163391560E-12  0.926387444480E-12  0.100354354015E-11  0.108712574105E-11  0.117766925869E-11
  0.127575388076E-11  0.138200768378E-11  0.149711105495E-11  0.162180104890E-11  0.175687610743E-11
  0.190320117217E-11  0.206171322328E-11  0.223342727920E-11  0.241944289634E-11  0.262095120995E-11
  0.283924256144E-11  0.307571476102E-11  0.333188203844E-11  0.360938473921E-11  0.390999982849E-11
  0.423565226965E-11  0.458842735068E-11  0.497058403716E-11  0.538456943733E-11  0.583303447197E-11
  0.631885084937E-11  0.684512945405E-11  0.741524026712E-11  0.803283394561E-11  0.870186519923E-11
  0.942661811402E-11  0.102117335851E-10  0.110622390345E-10  0.119835806035E-10  0.129816580270E-10
  0.140628624115E-10  0.152341171608E-10  0.165029223088E-10  0.178774025456E-10  0.193663592437E-10
  0.209793268164E-10  0.227266337714E-10  0.246194688478E-10  0.266699526632E-10  0.288912153267E-10
  0.312974805168E-10  0.339041565620E-10  0.367279351065E-10  0.397868979945E-10  0.431006330559E-10
  0.466903595356E-10  0.505790639697E-10  0.547916473787E-10  0.593550847189E-10  0.642985976157E-10
  0.696538414823E-10  0.754551082233E-10  0.817395458209E-10  0.885473962107E-10  0.959222529680E-10
  0.103911340458E-09  0.112565816234E-09  0.121941098622E-09  0.132097221593E-09  0.143099219184E-09
  0.155017541941E-09  0.167928508052E-09  0.181914792040E-09  0.197065954175E-09  0.213479013964E-09
  0.231259071418E-09  0.250519980056E-09  0.271385075963E-09  0.293987967573E-09  0.318473391230E-09
  0.344998138004E-09  0.373732057706E-09  0.404859146520E-09  0.438578725223E-09  0.475106715545E-09
  0.514677022822E-09  0.557543033816E-09  0.603979239291E-09  0.654282991720E-09  0.708776409396E-09
  0.767808439137E-09  0.831757090788E-09  0.901031857831E-09  0.976076339611E-09  0.105737108196E-08
  0.114543665443E-08  0.124083698380E-08  0.134418296526E-08  0.145613637434E-08  0.157741410471E-08
  0.170879275891E-08  0.185111362142E-08  0.200528804603E-08  0.217230329183E-08  0.235322884535E-08
  0.254922326927E-08  0.276154162152E-08  0.299154349241E-08  0.324070171114E-08  0.351061177748E-08
  0.380300207909E-08  0.411974495985E-08  0.446286871007E-08  0.483457055550E-08  0.523723072811E-08
  0.567342770903E-08  0.614595474106E-08  0.665783771660E-08  0.721235455560E-08  0.781305619760E-08
  0.846378934231E-08  0.916872108448E-08  0.993236560071E-08  0.107596130593E-07  0.116557609382E-07
  0.126265479519E-07  0.136781908041E-07  0.148174240020E-07  0.160515429879E-07  0.173884508623E-07
  0.188367090008E-07  0.204055918865E-07  0.221051465105E-07  0.239462567211E-07  0.259407129334E-07
  0.281012876468E-07  0.304418172527E-07  0.329772906593E-07  0.357239452985E-07  0.386993711318E-07
  0.419226233222E-07  0.454143442924E-07  0.491968959535E-07  0.532945029500E-07  0.577334078416E-07
  0.625420392135E-07  0.677511937960E-07  0.733942337586E-07  0.795073004454E-07  0.861295459208E-07
  0.933033838109E-07  0.101074761050E-06  0.109493452272E-06  0.118613378743E-06  0.128492953865E-06
  0.139195457489E-06  0.150789441420E-06  0.163349168723E-06  0.176955089656E-06  0.191694357267E-06
  0.207661385991E-06  0.224958456800E-06  0.243696372821E-06  0.263995169618E-06  0.285984884699E-06
  0.309806391193E-06  0.335612301061E-06  0.363567943628E-06  0.393852425741E-06  0.426659780363E-06
  0.462200210980E-06  0.500701439838E-06  0.542410168673E-06  0.587593661335E-06  0.636541458490E-06
  0.689567235447E-06  0.747010815057E-06  0.809240348672E-06  0.876654679198E-06  0.949685901479E-06
  0.102880213654E-05  0.111451053753E-05  0.120736054687E-05  0.130794742547E-05  0.141691607701E-05
  0.153496519179E-05  0.166285173708E-05  0.180139582303E-05  0.195148597545E-05  0.211408484982E-05
  0.229023542345E-05  0.248106770588E-05  0.268780601121E-05  0.291177683939E-05  0.315441741787E-05
  0.341728495893E-05  0.370206669317E-05  0.401059074430E-05  0.434483791625E-05  0.470695446949E-05
  0.509926596992E-05  0.552429230107E-05  0.598476393772E-05  0.648363958760E-05  0.702412531703E-05
  0.760969528613E-05  0.824411422987E-05  0.893146183330E-05  0.967615916170E-05  0.104829973202E-04
  0.113571685328E-04  0.123042998469E-04  0.133304896867E-04  0.144423474995E-04  0.156470367595E-04
  0.169523216146E-04  0.183666174918E-04  0.198990459978E-04  0.215594944865E-04  0.233586806937E-04
  0.253082228780E-04  0.274207159420E-04  0.297098140518E-04  0.321903203209E-04  0.348782841684E-04
  0.377911070244E-04  0.409476571082E-04  0.443683940737E-04  0.480755043893E-04  0.520930483930E-04
  0.564471200544E-04  0.611660205647E-04  0.662804469820E-04  0.718236972678E-04  0.778318931774E-04
  0.843442226002E-04  0.914032030933E-04  0.990549685178E-04  0.107349580861E-03  0.116341369532E-03
  0.126089300618E-03  0.136657378852E-03  0.148115085275E-03  0.160537853885E-03  0.174007590865E-03
  0.188613240354E-03  0.204451401072E-03  0.221626998585E-03  0.240254018405E-03  0.260456305699E-03
  0.282368437888E-03  0.306136677114E-03  0.331920010175E-03  0.359891284387E-03  0.390238448587E-03
  0.423165909529E-03  0.458896014901E-03  0.497670675379E-03  0.539753139424E-03  0.585429935925E-03
  0.635013001386E-03  0.688842010109E-03  0.747286927742E-03  0.810750810726E-03  0.879672876573E-03
  0.954531872532E-03  0.103584977316E-02  0.112419584056E-02  0.122019108470E-02  0.132451316517E-02
  0.143790178029E-02  0.156116459435E-02  0.169518375924E-02  0.184092309279E-02  0.199943598304E-02
  0.217187409467E-02  0.235949696259E-02  0.256368256643E-02  0.278593898970E-02  0.302791727886E-02
  0.329142562917E-02  0.357844503831E-02  0.389114658287E-02  0.423191048960E-02  0.460334719072E-02
  0.500832057214E-02  0.544997364465E-02  0.593175689102E-02  0.645745956716E-02  0.703124426231E-02
  0.765768505234E-02  0.834180961163E-02  0.908914568188E-02  0.990577233214E-02  0.107983764810E-01
  0.117743151915E-01  0.128416842889E-01  0.140093938949E-01  0.152872515109E-01  0.166860533285E-01
  0.182176844838E-01  0.198952290114E-01  0.217330902910E-01  0.237471228071E-01  0.259547760688E-01
  0.283752515469E-01  0.310296734907E-01  0.339412744699E-01  0.371355964577E-01  0.406407082111E-01
  0.444874396242E-01  0.487096336119E-01  0.533444159278E-01  0.584324831184E-01  0.640184085725E-01
  0.701509663152E-01  0.768834718366E-01  0.842741388154E-01  0.923864501030E-01  0.101289540772E+00
  0.111058590414E+00  0.121775221179E+00  0.133527897354E+00  0.146412321511E+00  0.160531821558E+00
  0.175997722339E+00  0.192929694896E+00  0.211456076148E+00  0.231714151660E+00  0.253850394525E+00
  0.278020654276E+00  0.304390291318E+00  0.333134254872E+00  0.364437106059E+00  0.398492992626E+00
  0.435505588362E+00  0.475688018469E+00  0.519262802349E+00  0.566461857480E+00  0.617526622353E+00
  0.672708372499E+00  0.732268821285E+00  0.796481115491E+00  0.865631353790E+00  0.940020772522E+00
  0.101996875560E+01  0.110581683134E+01  0.119793381521E+01  0.129672224039E+01  0.140265025781E+01
  0.151645816860E+01  0.163910106910E+01  0.177166675097E+01  0.191539480642E+01  0.000000000000E+00
  0.000000000000E+00  0.000000000000E+00  0.000000000000E+00  0.000000000000E+00  0.000000000000E+00
  0.000000000000E+00  0.000000000000E+00  0.000000000000E+00  0.000000000000E+00  0.000000000000E+00
  0.000000000000E+00  0.000000000000E+00  0.000000000000E+00  0.000000000000E+00  0.000000000000E+00
  0.000000000000E+00  0.000000000000E+00  0.000000000000E+00  0.000000000000E+00  0.000000000000E+00
  0.000000000000E+00  0.000000000000E+00  0.000000000000E+00  0.000000000000E+00  0.000000000000E+00
  0.000000000000E+00  0.000000000000E+00  0.000000000000E+00  0.000000000000E+00  0.000000000000E+00
  0.000000000000E+00  0.000000000000E+00  0.000000000000E+00  0.000000000000E+00  0.000000000000E+00
  0.000000000000E+00  0.000000000000E+00  0.000000000000E+00  0.000000000000E+00  0.000000000000E+00
  0.000000000000E+00  0.000000000000E+00
 ae wavefunction
 -0.668564152047E-09 -0.720434018228E-09 -0.775953362433E-09 -0.835404764044E-09 -0.899091073912E-09
 -0.967336992037E-09 -0.104049076067E-08 -0.111892598320E-08 -0.120304357724E-08 -0.129327387384E-08
 -0.139007887291E-08 -0.149395466841E-08 -0.160543405545E-08 -0.172508933387E-08 -0.185353532466E-08
 -0.199143261327E-08 -0.213949104070E-08 -0.229847345937E-08 -0.246919977476E-08 -0.265255129590E-08
 -0.284947541900E-08 -0.306099066798E-08 -0.328819212331E-08 -0.353225726350E-08 -0.379445226547E-08
 -0.407613877078E-08 -0.437878119757E-08 -0.470395459434E-08 -0.505335311270E-08 -0.542879913117E-08
 -0.583225308252E-08 -0.626582404955E-08 -0.673178116906E-08 -0.723256593449E-08 -0.777080544463E-08
 -0.834932668453E-08 -0.897117192000E-08 -0.963961528684E-08 -0.103581806731E-07 -0.111306610005E-07
 -0.119611390061E-07 -0.128540096507E-07 -0.138140042767E-07 -0.148462166602E-07 -0.159561311015E-07
 -0.171496527182E-07 -0.184331401146E-07 -0.198134406172E-07 -0.212979282784E-07 -0.228945448694E-07
 -0.246118440987E-07 -0.264590393147E-07 -0.284460549668E-07 -0.305835821275E-07 -0.328831383957E-07
 -0.353571325339E-07 -0.380189342131E-07 -0.408829492766E-07 -0.439647009602E-07 -0.472809175471E-07
 -0.508496269693E-07 -0.546902589130E-07 -0.588237550266E-07 -0.632726878799E-07 -0.680613893762E-07
 -0.732160893717E-07 -0.787650653213E-07 -0.847388038368E-07 -0.911701751023E-07 -0.980946211961E-07
 -0.105550359414E-06 -0.113578601798E-06 -0.122223792211E-06 -0.131533862286E-06 -0.141560507852E-06
 -0.152359487416E-06 -0.163990944508E-06 -0.176519755770E-06 -0.190015906929E-06 -0.204554898757E-06
 -0.220218185622E-06 -0.237093649006E-06 -0.255276109067E-06 -0.274867877040E-06 -0.295979351957E-06
 -0.318729665118E-06 -0.343247376242E-06 -0.369671225323E-06 -0.398150944836E-06 -0.428848136940E-06
 -0.461937221067E-06 -0.497606457433E-06 -0.536059052574E-06 -0.577514353574E-06 -0.622209137936E-06
 -0.670399006933E-06 -0.722359890604E-06 -0.778389673364E-06 -0.838809949946E-06 -0.903967922013E-06
 -0.974238446774E-06 -0.105002624966E-05 -0.113176831430E-05 -0.121993646383E-05 -0.131504014890E-05
 -0.141762945881E-05 -0.152829837361E-05 -0.164768827633E-05 -0.177649174609E-05 -0.191545665441E-05
 -0.206539058881E-05 -0.222716562985E-05 -0.240172350939E-05 -0.259008118068E-05 -0.279333683257E-05
 -0.301267638308E-05 -0.324938049100E-05 -0.350483212455E-05 -0.378052473381E-05 -0.407807107200E-05
 -0.439921271838E-05 -0.474583035708E-05 -0.511995487231E-05 -0.552377932233E-05 -0.595967186347E-05
 -0.643018969597E-05 -0.693809411403E-05 -0.748636674461E-05 -0.807822706831E-05 -0.871715132233E-05
 -0.940689289269E-05 -0.101515043117E-04 -0.109553609843E-04 -0.118231867783E-04 -0.127600816213E-04
 -0.137715512595E-04 -0.148635393454E-04 -0.160424620314E-04 -0.173152452638E-04 -0.186893649821E-04
 -0.201728904450E-04 -0.217745309236E-04 -0.235036860141E-04 -0.253704998479E-04 -0.273859194903E-04
 -0.295617578475E-04 -0.319107614168E-04 -0.344466832469E-04 -0.371843614953E-04 -0.401398040021E-04
 -0.433302793260E-04 -0.467744147224E-04 -0.504923015759E-04 -0.545056088364E-04 -0.588377050448E-04
 -0.635137895784E-04 -0.685610337845E-04 -0.740087327219E-04 -0.798884682757E-04 -0.862342844631E-04
 -0.930828758045E-04 -0.100473789691E-03 -0.108449643742E-03 -0.117056359211E-03 -0.126343411570E-03
 -0.136364099464E-03 -0.147175833338E-03 -0.158840445054E-03 -0.171424519989E-03 -0.184999753115E-03
 -0.199643330699E-03 -0.215438339363E-03 -0.232474204313E-03 -0.250847158698E-03 -0.270660746141E-03
 -0.292026358618E-03 -0.315063811978E-03 -0.339901961530E-03 -0.366679360255E-03 -0.395544962327E-03
 -0.426658874800E-03 -0.460193160411E-03 -0.496332694672E-03 -0.535276080504E-03 -0.577236623873E-03
 -0.622443374033E-03 -0.671142232144E-03 -0.723597132176E-03 -0.780091298228E-03 -0.840928582480E-03
 -0.906434888234E-03 -0.976959682584E-03 -0.105287760349E-02 -0.113459016608E-02 -0.122252757329E-02
 -0.131715063586E-02 -0.141895280712E-02 -0.152846233775E-02 -0.164624455617E-02 -0.177290427991E-02
 -0.190908836364E-02 -0.205548838932E-02 -0.221284350413E-02 -0.238194341162E-02 -0.256363152142E-02
 -0.275880826287E-02 -0.296843456747E-02 -0.319353552501E-02 -0.343520421786E-02 -0.369460573735E-02
 -0.397298138591E-02 -0.427165306795E-02 -0.459202787174E-02 -0.493560284393E-02 -0.530396995731E-02
 -0.569882127148E-02 -0.612195428490E-02 -0.657527747552E-02 -0.706081602577E-02 -0.758071772592E-02
 -0.813725904820E-02 -0.873285138194E-02 -0.937004741790E-02 -0.100515476674E-01 -0.107802070993E-01
 -0.115590418755E-01 -0.123912361608E-01 -0.132801489829E-01 -0.142293211109E-01 -0.152424819192E-01
 -0.163235561998E-01 -0.174766708803E-01 -0.187061616013E-01 -0.200165791020E-01 -0.214126953582E-01
 -0.228995094121E-01 -0.244822528263E-01 -0.261663946928E-01 -0.279576461169E-01 -0.298619640956E-01
 -0.318855546978E-01 -0.340348754496E-01 -0.363166368157E-01 -0.387378026569E-01 -0.413055895290E-01
 -0.440274646698E-01 -0.469111425008E-01 -0.499645794507E-01 -0.531959668827E-01 -0.566137219007E-01
 -0.602264757957E-01 -0.640430599092E-01 -0.680724887066E-01 -0.723239398917E-01 -0.768067314374E-01
 -0.815302954526E-01 -0.865041488498E-01 -0.917378608079E-01 -0.972410170400E-01 -0.103023180873E+00
 -0.109093851109E+00 -0.115462416601E+00 -0.122138107407E+00 -0.129129942353E+00 -0.136446672842E+00
 -0.144096722726E+00 -0.152088124174E+00 -0.160428449474E+00 -0.169124738824E+00 -0.178183424174E+00
 -0.187610249253E+00 -0.197410185938E+00 -0.207587347175E+00 -0.218144896700E+00 -0.229084955888E+00
 -0.240408508108E+00 -0.252115301068E+00 -0.264203747703E+00 -0.276670826265E+00 -0.289511980365E+00
 -0.302721019818E+00 -0.316290023251E+00 -0.330209243502E+00 -0.344467016966E+00 -0.359049678090E+00
 -0.373941480314E+00 -0.389124524766E+00 -0.404578698109E+00 -0.420281620894E+00 -0.436208607832E+00
 -0.452332641370E+00 -0.468624360033E+00 -0.485052063030E+00 -0.501581732805E+00 -0.518177077399E+00
 -0.534799594671E+00 -0.551408660538E+00 -0.567961642931E+00 -0.584414041933E+00 -0.600719653708E+00
 -0.616830751003E+00 -0.632698266300E+00 -0.648271956093E+00 -0.663500520075E+00 -0.678331651335E+00
 -0.692712008922E+00 -0.706587132763E+00 -0.719901360621E+00 -0.732597841421E+00 -0.744618746731E+00
 -0.755905738157E+00 -0.766400655621E+00 -0.776046300966E+00 -0.784787167405E+00 -0.792570021900E+00
 -0.799344331201E+00 -0.805062576450E+00 -0.809680510074E+00 -0.813157390826E+00 -0.815456210675E+00
 -0.816543910003E+00 -0.816391568677E+00 -0.814974558740E+00 -0.812272646406E+00 -0.808270035609E+00
 -0.802955350023E+00 -0.796321554851E+00 -0.788365822042E+00 -0.779089345024E+00 -0.768497109434E+00
 -0.756597627006E+00 -0.743402639270E+00 -0.728926798058E+00 -0.713187328173E+00 -0.696203678407E+00
 -0.677997164859E+00 -0.658590610475E+00 -0.638007984025E+00 -0.616274039403E+00 -0.593413957082E+00
 -0.569452986540E+00 -0.544416089309E+00 -0.518327580158E+00 -0.491210764268E+00 -0.463087567531E+00
 -0.433978156470E+00 -0.403900545777E+00 -0.372870189813E+00 -0.340899556566E+00 -0.307997681623E+00
 -0.274169700651E+00 -0.239416357730E+00 -0.203733486663E+00 -0.167111460433E+00 -0.129534602295E+00
 -0.909805499469E-01 -0.514195631782E-01 -0.108137657614E-01  0.308836847656E-01  0.737295002486E-01
  0.117791231764E+00  0.163148294074E+00  0.209893032353E+00  0.258131828678E+00  0.307986267153E+00
  0.359594405478E+00  0.413112229003E+00  0.468715379426E+00  0.526601249980E+00  0.586991523057E+00
  0.650135206802E+00  0.716312211843E+00  0.785837503317E+00  0.859065885051E+00  0.936397471022E+00
  0.101828394912E+01  0.110523575059E+01  0.119783027858E+01  0.129672137554E+01  0.140265025781E+01
  0.151645816860E+01  0.163910106910E+01  0.177166675097E+01  0.191539480642E+01  0.000000000000E+00
  0.000000000000E+00  0.000000000000E+00  0.000000000000E+00  0.000000000000E+00  0.000000000000E+00
  0.000000000000E+00  0.000000000000E+00  0.000000000000E+00  0.000000000000E+00  0.000000000000E+00
  0.000000000000E+00  0.000000000000E+00  0.000000000000E+00  0.000000000000E+00  0.000000000000E+00
  0.000000000000E+00  0.000000000000E+00  0.000000000000E+00  0.000000000000E+00  0.000000000000E+00
  0.000000000000E+00  0.000000000000E+00  0.000000000000E+00  0.000000000000E+00  0.000000000000E+00
  0.000000000000E+00  0.000000000000E+00  0.000000000000E+00  0.000000000000E+00  0.000000000000E+00
  0.000000000000E+00  0.000000000000E+00  0.000000000000E+00  0.000000000000E+00  0.000000000000E+00
  0.000000000000E+00  0.000000000000E+00  0.000000000000E+00  0.000000000000E+00  0.000000000000E+00
  0.000000000000E+00  0.000000000000E+00
 pseudo wavefunction
  0.115657482182E-03  0.118783172337E-03  0.121993335531E-03  0.125290254680E-03  0.128676274399E-03
  0.132153802668E-03  0.135725312540E-03  0.139393343908E-03  0.143160505304E-03  0.147029475755E-03
  0.151003006693E-03  0.155083923908E-03  0.159275129555E-03  0.163579604226E-03  0.168000409060E-03
  0.172540687926E-03  0.177203669660E-03  0.181992670354E-03  0.186911095722E-03  0.191962443517E-03
  0.197150306022E-03  0.202478372601E-03  0.207950432326E-03  0.213570376668E-03  0.219342202269E-03
  0.225270013781E-03  0.231358026786E-03  0.237610570792E-03  0.244032092316E-03  0.250627158042E-03
  0.257400458072E-03  0.264356809260E-03  0.271501158635E-03  0.278838586923E-03  0.286374312159E-03
  0.294113693397E-03  0.302062234521E-03  0.310225588160E-03  0.318609559707E-03  0.327220111449E-03
  0.336063366805E-03  0.345145614682E-03  0.354473313947E-03  0.364053098021E-03  0.373891779596E-03
  0.383996355476E-03  0.394374011562E-03  0.405032127951E-03  0.415978284194E-03  0.427220264681E-03
  0.438766064176E-03  0.450623893506E-03  0.462802185399E-03  0.475309600479E-03  0.488155033429E-03
  0.501347619310E-03  0.514896740065E-03  0.528812031185E-03  0.543103388564E-03  0.557780975536E-03
  0.572855230103E-03  0.588336872355E-03  0.604236912100E-03  0.620566656685E-03  0.637337719046E-03
  0.654562025960E-03  0.672251826527E-03  0.690419700887E-03  0.709078569158E-03  0.728241700630E-03
  0.747922723199E-03  0.768135633059E-03  0.788894804653E-03  0.810215000899E-03  0.832111383687E-03
  0.854599524659E-03  0.877695416285E-03  0.901415483237E-03  0.925776594064E-03  0.950796073194E-03
  0.976491713249E-03  0.100288178770E-02  0.102998506387E-02  0.105782081625E-02  0.108640884025E-02
  0.111576946625E-02  0.114592357405E-02  0.117689260774E-02  0.120869859092E-02  0.124136414241E-02
  0.127491249228E-02  0.130936749840E-02  0.134475366339E-02  0.138109615209E-02  0.141842080937E-02
  0.145675417858E-02  0.149612352041E-02  0.153655683225E-02  0.157808286813E-02  0.162073115914E-02
  0.166453203446E-02  0.170951664288E-02  0.175571697501E-02  0.180316588597E-02  0.185189711880E-02
  0.190194532842E-02  0.195334610629E-02  0.200613600572E-02  0.206035256782E-02  0.211603434828E-02
  0.217322094469E-02  0.223195302476E-02  0.229227235521E-02  0.235422183148E-02  0.241784550820E-02
  0.248318863056E-02  0.255029766644E-02  0.261922033948E-02  0.269000566298E-02  0.276270397478E-02
  0.283736697300E-02  0.291404775288E-02  0.299280084443E-02  0.307368225127E-02  0.315674949042E-02
  0.324206163316E-02  0.332967934710E-02  0.341966493923E-02  0.351208240026E-02  0.360699745009E-02
  0.370447758453E-02  0.380459212329E-02  0.390741225923E-02  0.401301110899E-02  0.412146376495E-02
  0.423284734859E-02  0.434724106533E-02  0.446472626078E-02  0.458538647862E-02  0.470930751989E-02
  0.483657750403E-02  0.496728693148E-02  0.510152874795E-02  0.523939841052E-02  0.538099395543E-02
  0.552641606775E-02  0.567576815291E-02  0.582915641012E-02  0.598668990789E-02  0.614848066144E-02
  0.631464371226E-02  0.648529720988E-02  0.666056249571E-02  0.684056418923E-02  0.702543027651E-02
  0.721529220104E-02  0.741028495705E-02  0.761054718538E-02  0.781622127185E-02  0.802745344835E-02
  0.824439389658E-02  0.846719685464E-02  0.869602072646E-02  0.893102819418E-02  0.917238633353E-02
  0.942026673231E-02  0.967484561210E-02  0.993630395318E-02  0.102048276228E-01  0.104806075070E-01
  0.107638396458E-01  0.110547253719E-01  0.113534714539E-01  0.116602902420E-01  0.119753998187E-01
  0.122990241534E-01  0.126313932603E-01  0.129727433616E-01  0.133233170546E-01  0.136833634829E-01
  0.140531385127E-01  0.144329049135E-01  0.148229325440E-01  0.152234985422E-01  0.156348875214E-01
  0.160573917706E-01  0.164913114612E-01  0.169369548578E-01  0.173946385363E-01  0.178646876059E-01
  0.183474359387E-01  0.188432264040E-01  0.193524111095E-01  0.198753516489E-01  0.204124193554E-01
  0.209639955622E-01  0.215304718702E-01  0.221122504220E-01  0.227097441832E-01  0.233233772317E-01
  0.239535850533E-01  0.246008148463E-01  0.252655258327E-01  0.259481895783E-01  0.266492903207E-01
  0.273693253057E-01  0.281088051323E-01  0.288682541065E-01  0.296482106041E-01  0.304492274426E-01
  0.312718722625E-01  0.321167279182E-01  0.329843928783E-01  0.338754816368E-01  0.347906251332E-01
  0.357304711836E-01  0.366956849225E-01  0.376869492551E-01  0.387049653202E-01  0.397504529646E-01
  0.408241512291E-01  0.419268188448E-01  0.430592347423E-01  0.442221985723E-01  0.454165312374E-01
  0.466430754371E-01  0.479026962244E-01  0.491962815749E-01  0.505247429687E-01  0.518890159838E-01
  0.532900609038E-01  0.547288633367E-01  0.562064348477E-01  0.577238136036E-01  0.592820650311E-01
  0.608822824871E-01  0.625255879413E-01  0.642131326726E-01  0.659460979763E-01  0.677256958843E-01
  0.695531698976E-01  0.714297957289E-01  0.733568820584E-01  0.753357712988E-01  0.773678403712E-01
  0.794545014910E-01  0.815972029627E-01  0.837974299823E-01  0.860567054485E-01  0.883765907790E-01
  0.907586867333E-01  0.932046342388E-01  0.957161152202E-01  0.982948534298E-01  0.100942615278E+00
  0.103661210659E+00  0.106452493778E+00  0.109318363964E+00  0.112260766478E+00  0.115281693308E+00
  0.118383183950E+00  0.121567326167E+00  0.124836256729E+00  0.128192162126E+00  0.131637279249E+00
  0.135173896033E+00  0.138804352067E+00  0.142531039145E+00  0.146356401774E+00  0.150282937617E+00
  0.154313197865E+00  0.158449787542E+00  0.162695365714E+00  0.167052645612E+00  0.171524394641E+00
  0.176113434282E+00  0.180822639855E+00  0.185654940145E+00  0.190613316865E+00  0.195700803955E+00
  0.200920486680E+00  0.206275500524E+00  0.211769029855E+00  0.217404306339E+00  0.223184607077E+00
  0.229113252450E+00  0.235193603629E+00  0.241429059740E+00  0.247823054632E+00  0.254379053232E+00
  0.261100547445E+00  0.267991051554E+00  0.275054097085E+00  0.282293227100E+00  0.289711989844E+00
  0.297313931737E+00  0.305102589612E+00  0.313081482175E+00  0.321254100610E+00  0.329623898269E+00
  0.338194279374E+00  0.346968586660E+00  0.355950087887E+00  0.365141961125E+00  0.374547278748E+00
  0.384168990023E+00  0.394009902217E+00  0.404072660120E+00  0.414359723868E+00  0.424873344987E+00
  0.435615540520E+00  0.446588065137E+00  0.457792381119E+00  0.469229626087E+00  0.480900578362E+00
  0.492805619840E+00  0.504944696265E+00  0.517317274782E+00  0.529922298670E+00  0.542758139134E+00
  0.555822544084E+00  0.569112583799E+00  0.582624593429E+00  0.596354112254E+00  0.610295819718E+00
  0.624443468191E+00  0.638789812532E+00  0.653326536501E+00  0.668044176149E+00  0.682932040350E+00
  0.697978128712E+00  0.713169047166E+00  0.728489921611E+00  0.743924310094E+00  0.759454114087E+00
  0.775059489567E+00  0.790718758683E+00  0.806408322998E+00  0.822102579383E+00  0.837773839849E+00
  0.853392256761E+00  0.868925755090E+00  0.884339973515E+00  0.899598216460E+00  0.914661419300E+00
  0.929488129244E+00  0.944034504545E+00  0.958254334954E+00  0.972099086452E+00  0.985517973460E+00
  0.998458061823E+00  0.101086440588E+01  0.102268022290E+01  0.103384710796E+01  0.104430529212E+01
  0.105399394619E+01  0.106285153195E+01  0.107081620134E+01  0.107782624362E+01  0.108382057843E+01
  0.108873929111E+01  0.109252420442E+01  0.109511947788E+01  0.109647222303E+01  0.109653311889E+01
  0.109525700799E+01  0.109260344834E+01  0.108853719180E+01  0.108302855348E+01  0.107605363118E+01
  0.106759432819E+01  0.105763812704E+01  0.104617755720E+01  0.103320929606E+01  0.101873284073E+01
  0.100274868934E+01  0.985255974889E+00  0.966249504282E+00  0.945716170461E+00  0.923630728567E+00
  0.899948537015E+00  0.874687202450E+00  0.847990221235E+00  0.820024324352E+00  0.790959416609E+00
  0.760967240760E+00  0.730220027367E+00  0.698889196267E+00  0.667144050852E+00  0.635150529932E+00
  0.603070005749E+00  0.571058141344E+00  0.539263816778E+00  0.507828132979E+00  0.476883503011E+00
  0.446552840367E+00  0.416948854508E+00  0.388173463787E+00  0.360317335430E+00  0.333459560955E+00
  0.307667473367E+00  0.282996609580E+00  0.259490818003E+00  0.237182507348E+00  0.216093029099E+00
  0.196233181674E+00  0.177603822612E+00  0.160196571427E+00  0.143994585173E+00  0.128973387712E+00
  0.115101733840E+00  0.102342490069E+00  0.906535151260E-01  0.799885248513E-01  0.702979281914E-01
  0.615296232140E-01  0.536297444972E-01  0.465433557230E-01  0.402150837058E-01  0.345896922706E-01
  0.296125961860E-01  0.252303166551E-01  0.213908806042E-01  0.180441662273E-01  0.151421970545E-01
  0.126393864029E-01  0.104927336229E-01
 ae wavefunction
 -0.185813569961E-02 -0.190678939790E-02 -0.195671259473E-02 -0.200793817825E-02 -0.206049987609E-02
 -0.211443227608E-02 -0.216977084755E-02 -0.222655196305E-02 -0.228481292056E-02 -0.234459196625E-02
 -0.240592831769E-02 -0.246886218766E-02 -0.253343480839E-02 -0.259968845645E-02 -0.266766647807E-02
 -0.273741331511E-02 -0.280897453153E-02 -0.288239684046E-02 -0.295772813186E-02 -0.303501750072E-02
 -0.311431527590E-02 -0.319567304956E-02 -0.327914370717E-02 -0.336478145822E-02 -0.345264186734E-02
 -0.354278188652E-02 -0.363525988727E-02 -0.373013569409E-02 -0.382747061821E-02 -0.392732749204E-02
 -0.402977070444E-02 -0.413486623638E-02 -0.424268169760E-02 -0.435328636363E-02 -0.446675121370E-02
 -0.458314896925E-02 -0.470255413307E-02 -0.482504302924E-02 -0.495069384362E-02 -0.507958666514E-02
 -0.521180352764E-02 -0.534742845249E-02 -0.548654749185E-02 -0.562924877252E-02 -0.577562254054E-02
 -0.592576120642E-02 -0.607975939092E-02 -0.623771397156E-02 -0.639972412971E-02 -0.656589139819E-02
 -0.673631970961E-02 -0.691111544506E-02 -0.709038748354E-02 -0.727424725173E-02 -0.746280877435E-02
 -0.765618872490E-02 -0.785450647686E-02 -0.805788415522E-02 -0.826644668842E-02 -0.848032186052E-02
 -0.869964036365E-02 -0.892453585062E-02 -0.915514498773E-02 -0.939160750761E-02 -0.963406626207E-02
 -0.988266727493E-02 -0.101375597947E-01 -0.103988963470E-01 -0.106668327869E-01 -0.109415283503E-01
 -0.112231457057E-01 -0.115118510045E-01 -0.118078139310E-01 -0.121112077518E-01 -0.124222093635E-01
 -0.127409993401E-01 -0.130677619785E-01 -0.134026853433E-01 -0.137459613087E-01 -0.140977856006E-01
 -0.144583578348E-01 -0.148278815540E-01 -0.152065642629E-01 -0.155946174592E-01 -0.159922566634E-01
 -0.163997014445E-01 -0.168171754423E-01 -0.172449063867E-01 -0.176831261126E-01 -0.181320705703E-01
 -0.185919798318E-01 -0.190630980918E-01 -0.195456736632E-01 -0.200399589672E-01 -0.205462105170E-01
 -0.210646888949E-01 -0.215956587223E-01 -0.221393886219E-01 -0.226961511721E-01 -0.232662228528E-01
 -0.238498839815E-01 -0.244474186400E-01 -0.250591145901E-01 -0.256852631788E-01 -0.263261592315E-01
 -0.269821009317E-01 -0.276533896888E-01 -0.283403299905E-01 -0.290432292411E-01 -0.297623975828E-01
 -0.304981477015E-01 -0.312507946134E-01 -0.320206554338E-01 -0.328080491256E-01 -0.336132962266E-01
 -0.344367185550E-01 -0.352786388910E-01 -0.361393806345E-01 -0.370192674358E-01 -0.379186228000E-01
 -0.388377696619E-01 -0.397770299309E-01 -0.407367240041E-01 -0.417171702458E-01 -0.427186844324E-01
 -0.437415791600E-01 -0.447861632134E-01 -0.458527408954E-01 -0.469416113127E-01 -0.480530676184E-01
 -0.491873962076E-01 -0.503448758646E-01 -0.515257768600E-01 -0.527303599939E-01 -0.539588755852E-01
 -0.552115624028E-01 -0.564886465365E-01 -0.577903402064E-01 -0.591168405070E-01 -0.604683280841E-01
 -0.618449657414E-01 -0.632468969747E-01 -0.646742444310E-01 -0.661271082888E-01 -0.676055645587E-01
 -0.691096632998E-01 -0.706394267499E-01 -0.721948473673E-01 -0.737758857805E-01 -0.753824686434E-01
 -0.770144863937E-01 -0.786717909122E-01 -0.803541930791E-01 -0.820614602262E-01 -0.837933134827E-01
 -0.855494250111E-01 -0.873294151328E-01 -0.891328493409E-01 -0.909592351979E-01 -0.928080191181E-01
 -0.946785830332E-01 -0.965702409396E-01 -0.984822353281E-01 -0.100413733495E+00 -0.102363823737E+00
 -0.104331511425E+00 -0.106315714968E+00 -0.108315261659E+00 -0.110328883412E+00 -0.112355212393E+00
 -0.114392776542E+00 -0.116439995004E+00 -0.118495173460E+00 -0.120556499381E+00 -0.122622037193E+00
 -0.124689723385E+00 -0.126757361546E+00 -0.128822617371E+00 -0.130883013617E+00 -0.132935925049E+00
 -0.134978573386E+00 -0.137008022250E+00 -0.139021172166E+00 -0.141014755605E+00 -0.142985332118E+00
 -0.144929283569E+00 -0.146842809511E+00 -0.148721922724E+00 -0.150562444953E+00 -0.152360002884E+00
 -0.154110024397E+00 -0.155807735133E+00 -0.157448155425E+00 -0.159026097640E+00 -0.160536163982E+00
 -0.161972744819E+00 -0.163330017574E+00 -0.164601946263E+00 -0.165782281734E+00 -0.166864562679E+00
 -0.167842117485E+00 -0.168708067020E+00 -0.169455328407E+00 -0.170076619892E+00 -0.170564466886E+00
 -0.170911209265E+00 -0.171109010035E+00 -0.171149865444E+00 -0.171025616658E+00 -0.170727963087E+00
 -0.170248477475E+00 -0.169578622855E+00 -0.168709771480E+00 -0.167633225837E+00 -0.166340241849E+00
 -0.164822054368E+00 -0.163069905078E+00 -0.161075072889E+00 -0.158828906941E+00 -0.156322862297E+00
 -0.153548538416E+00 -0.150497720491E+00 -0.147162423707E+00 -0.143534940502E+00 -0.139607890850E+00
 -0.135374275628E+00 -0.130827533052E+00 -0.125961598204E+00 -0.120770965622E+00 -0.115250754891E+00
 -0.109396779184E+00 -0.103205616637E+00 -0.966746844449E-01 -0.898023154830E-01 -0.825878372878E-01
 -0.750316531264E-01 -0.671353248824E-01 -0.589016574184E-01 -0.503347840349E-01 -0.414402525864E-01
 -0.322251117646E-01 -0.226979970027E-01 -0.128692154042E-01 -0.275082904913E-02  0.764326400485E-02
  0.182972517416E-01  0.291933339566E-01  0.403116525226E-01  0.516302268983E-01  0.631248956537E-01
  0.747692648198E-01  0.865346639526E-01  0.983901109169E-01  0.110302286552E+00  0.122235520563E+00
  0.134151790144E+00  0.146010733018E+00  0.157769676620E+00  0.169383685238E+00  0.180805626786E+00
  0.191986260794E+00  0.202874348918E+00  0.213416789067E+00  0.223558773931E+00  0.233243974570E+00
  0.242414749559E+00  0.251012380079E+00  0.258977331300E+00  0.266249540227E+00  0.272768730034E+00
  0.278474750671E+00  0.283307945281E+00  0.287209541681E+00  0.290122067866E+00  0.291989790219E+00
  0.292759172761E+00  0.292379355477E+00  0.290802649406E+00  0.287985045792E+00  0.283886736247E+00
  0.278472640442E+00  0.271712937456E+00  0.263583596460E+00  0.254066902038E+00  0.243151968957E+00
  0.230835240882E+00  0.217120967080E+00  0.202021650881E+00  0.185558463367E+00  0.167761615557E+00
  0.148670682265E+00  0.128334870764E+00  0.106813227469E+00  0.841747760297E-01  0.604985803718E-01
  0.358737265319E-01  0.103992173451E-01 -0.158162255726E-01 -0.426544574813E-01 -0.699883074887E-01
 -0.976820780987E-01 -0.125592144530E+00 -0.153567645126E+00 -0.181451247526E+00 -0.209079970227E+00
 -0.236286039864E+00 -0.262897774380E+00 -0.288740502856E+00 -0.313637558546E+00 -0.337411399629E+00
 -0.359884903818E+00 -0.380882839624E+00 -0.400233458791E+00 -0.417770120270E+00 -0.433332867981E+00
 -0.446769923957E+00 -0.457939092832E+00 -0.466709086562E+00 -0.472960774171E+00 -0.476588351554E+00
 -0.477500417284E+00 -0.475620935472E+00 -0.470890066350E+00 -0.463264847709E+00 -0.452719715140E+00
 -0.439246854257E+00 -0.422856383276E+00 -0.403576368265E+00 -0.381452677057E+00 -0.356548679970E+00
 -0.328944807461E+00 -0.298737975742E+00 -0.266040892404E+00 -0.230981253831E+00 -0.193700846707E+00
 -0.154354564932E+00 -0.113109352983E+00 -0.701430860600E-01 -0.256433961397E-01  0.201935471542E-01
  0.671642930654E-01  0.115059395933E+00  0.163664723776E+00  0.212762781735E+00  0.262134042584E+00
  0.311558275854E+00  0.360815867093E+00  0.409689117737E+00  0.457963516933E+00  0.505428976550E+00
  0.551881022621E+00  0.597121937285E+00  0.640961848127E+00  0.683219762621E+00  0.723724545858E+00
  0.762315837191E+00  0.798844896333E+00  0.833175360768E+00  0.865183885858E+00  0.894760630587E+00
  0.921809549429E+00  0.946248462680E+00  0.968008904356E+00  0.987035789479E+00  0.100328698604E+01
  0.101673290416E+01  0.102735621250E+01  0.103515175066E+01  0.104012664571E+01  0.104230057734E+01
  0.104170610081E+01  0.103838892712E+01  0.103240807317E+01  0.102383584573E+01  0.101275761576E+01
  0.999271404370E+00  0.983487283137E+00  0.965526613355E+00  0.945521143445E+00  0.923611993671E+00
  0.899948537015E+00  0.874687202450E+00  0.847990221235E+00  0.820024324352E+00  0.790959416609E+00
  0.760967240760E+00  0.730220027367E+00  0.698889196267E+00  0.667144050852E+00  0.635150529932E+00
  0.603070005749E+00  0.571058141344E+00  0.539263816778E+00  0.507828132979E+00  0.476883503011E+00
  0.446552840367E+00  0.416948854508E+00  0.388173463787E+00  0.360317335430E+00  0.333459560955E+00
  0.307667473367E+00  0.282996609580E+00  0.259490818003E+00  0.237182507348E+00  0.216093029099E+00
  0.196233181674E+00  0.177603822612E+00  0.160196571427E+00  0.143994585173E+00  0.128973387712E+00
  0.115101733840E+00  0.102342490069E+00  0.906535151260E-01  0.799885248513E-01  0.702979281914E-01
  0.615296232140E-01  0.536297444972E-01  0.465433557230E-01  0.402150837058E-01  0.345896922706E-01
  0.296125961860E-01  0.252303166551E-01  0.213908806042E-01  0.180441662273E-01  0.151421970545E-01
  0.126393864029E-01  0.104927336229E-01
 pseudo wavefunction
  0.151537279920E-03  0.155632636096E-03  0.159838670925E-03  0.164158375543E-03  0.168594821921E-03
  0.173151165052E-03  0.177830645194E-03  0.182636590174E-03  0.187572417757E-03  0.192641638070E-03
  0.197847856107E-03  0.203194774285E-03  0.208686195084E-03  0.214326023743E-03  0.220118271046E-03
  0.226067056167E-03  0.232176609604E-03  0.238451276185E-03  0.244895518158E-03  0.251513918367E-03
  0.258311183509E-03  0.265292147479E-03  0.272461774811E-03  0.279825164210E-03  0.287387552172E-03
  0.295154316712E-03  0.303130981190E-03  0.311323218236E-03  0.319736853784E-03  0.328377871216E-03
  0.337252415620E-03  0.346366798154E-03  0.355727500540E-03  0.365341179669E-03  0.375214672338E-03
  0.385355000112E-03  0.395769374316E-03  0.406465201162E-03  0.417450087019E-03  0.428731843823E-03
  0.440318494627E-03  0.452218279313E-03  0.464439660446E-03  0.476991329298E-03  0.489882212023E-03
  0.503121476010E-03  0.516718536399E-03  0.530683062778E-03  0.545024986059E-03  0.559754505539E-03
  0.574882096158E-03  0.590418515941E-03  0.606374813656E-03  0.622762336666E-03  0.639592739001E-03
  0.656877989644E-03  0.674630381046E-03  0.692862537864E-03  0.711587425942E-03  0.730818361528E-03
  0.750569020748E-03  0.770853449330E-03  0.791686072591E-03  0.813081705697E-03  0.835055564199E-03
  0.857623274852E-03  0.880800886731E-03  0.904604882639E-03  0.929052190833E-03  0.954160197062E-03
  0.979946756928E-03  0.100643020859E-02  0.103362938578E-02  0.106156363126E-02  0.109025281049E-02
  0.111971732582E-02  0.114997813097E-02  0.118105674596E-02  0.121297527236E-02  0.124575640906E-02
  0.127942346839E-02  0.131400039271E-02  0.134951177139E-02  0.138598285838E-02  0.142343959007E-02
  0.146190860384E-02  0.150141725690E-02  0.154199364581E-02  0.158366662646E-02  0.162646583453E-02
  0.167042170664E-02  0.171556550196E-02  0.176192932441E-02  0.180954614554E-02  0.185844982796E-02
  0.190867514939E-02  0.196025782744E-02  0.201323454497E-02  0.206764297619E-02  0.212352181345E-02
  0.218091079475E-02  0.223985073201E-02  0.230038354005E-02  0.236255226647E-02  0.242640112217E-02
  0.249197551286E-02  0.255932207131E-02  0.262848869051E-02  0.269952455775E-02  0.277248018957E-02
  0.284740746766E-02  0.292435967580E-02  0.300339153773E-02  0.308455925604E-02  0.316792055213E-02
  0.325353470730E-02  0.334146260481E-02  0.343176677328E-02  0.352451143105E-02  0.361976253189E-02
  0.371758781186E-02  0.381805683751E-02  0.392124105529E-02  0.402721384239E-02  0.413605055886E-02
  0.424782860121E-02  0.436262745745E-02  0.448052876355E-02  0.460161636150E-02  0.472597635892E-02
  0.485369719025E-02  0.498486967961E-02  0.511958710537E-02  0.525794526645E-02  0.540004255039E-02
  0.554598000332E-02  0.569586140172E-02  0.584979332623E-02  0.600788523735E-02  0.617024955326E-02
  0.633700172967E-02  0.650826034190E-02  0.668414716910E-02  0.686478728083E-02  0.705030912584E-02
  0.724084462340E-02  0.743652925699E-02  0.763750217052E-02  0.784390626721E-02  0.805588831108E-02
  0.827359903117E-02  0.849719322860E-02  0.872682988650E-02  0.896267228289E-02  0.920488810664E-02
  0.945364957648E-02  0.970913356330E-02  0.997152171567E-02  0.102410005888E-01  0.105177617768E-01
  0.108020020489E-01  0.110939234887E-01  0.113937336380E-01  0.117016456436E-01  0.120178784086E-01
  0.123426567476E-01  0.126762115462E-01  0.130187799248E-01  0.133706054061E-01  0.137319380885E-01
  0.141030348223E-01  0.144841593927E-01  0.148755827058E-01  0.152775829807E-01  0.156904459467E-01
  0.161144650450E-01  0.165499416367E-01  0.169971852156E-01  0.174565136277E-01  0.179282532949E-01
  0.184127394466E-01  0.189103163559E-01  0.194213375829E-01  0.199461662242E-01  0.204851751693E-01
  0.210387473632E-01  0.216072760767E-01  0.221911651831E-01  0.227908294433E-01  0.234066947968E-01
  0.240391986620E-01  0.246887902436E-01  0.253559308479E-01  0.260410942071E-01  0.267447668113E-01
  0.274674482497E-01  0.282096515608E-01  0.289719035910E-01  0.297547453635E-01  0.305587324561E-01
  0.313844353890E-01  0.322324400227E-01  0.331033479657E-01  0.339977769935E-01  0.349163614777E-01
  0.358597528262E-01  0.368286199344E-01  0.378236496486E-01  0.388455472400E-01  0.398950368919E-01
  0.409728621978E-01  0.420797866728E-01  0.432165942778E-01  0.443840899559E-01  0.455831001826E-01
  0.468144735293E-01  0.480790812405E-01  0.493778178249E-01  0.507116016608E-01  0.520813756154E-01
  0.534881076796E-01  0.549327916170E-01  0.564164476282E-01  0.579401230304E-01  0.595048929520E-01
  0.611118610439E-01  0.627621602054E-01  0.644569533267E-01  0.661974340475E-01  0.679848275314E-01
  0.698203912567E-01  0.717054158240E-01  0.736412257791E-01  0.756291804529E-01  0.776706748180E-01
  0.797671403598E-01  0.819200459657E-01  0.841308988285E-01  0.864012453661E-01  0.887326721564E-01
  0.911268068871E-01  0.935853193194E-01  0.961099222664E-01  0.987023725840E-01  0.101364472175E+00
  0.104098069004E+00  0.106905058125E+00  0.109787382714E+00  0.112747035117E+00  0.115786057897E+00
  0.118906544895E+00  0.122110642286E+00  0.125400549646E+00  0.128778521007E+00  0.132246865921E+00
  0.135807950512E+00  0.139464198519E+00  0.143218092332E+00  0.147072174007E+00  0.151029046268E+00
  0.155091373478E+00  0.159261882590E+00  0.163543364057E+00  0.167938672709E+00  0.172450728577E+00
  0.177082517675E+00  0.181837092712E+00  0.186717573741E+00  0.191727148733E+00  0.196869074059E+00
  0.202146674878E+00  0.207563345417E+00  0.213122549128E+00  0.218827818712E+00  0.224682755991E+00
  0.230691031619E+00  0.236856384603E+00  0.243182621630E+00  0.249673616167E+00  0.256333307317E+00
  0.263165698412E+00  0.270174855302E+00  0.277364904338E+00  0.284740029983E+00  0.292304472057E+00
  0.300062522553E+00  0.308018521995E+00  0.316176855304E+00  0.324541947116E+00  0.333118256519E+00
  0.341910271137E+00  0.350922500539E+00  0.360159468878E+00  0.369625706726E+00  0.379325742025E+00
  0.389264090085E+00  0.399445242551E+00  0.409873655260E+00  0.420553734901E+00  0.431489824385E+00
  0.442686186820E+00  0.454146988000E+00  0.465876277283E+00  0.477877966753E+00  0.490155808531E+00
  0.502713370111E+00  0.515554007586E+00  0.528680836611E+00  0.542096700962E+00  0.555804138528E+00
  0.569805344570E+00  0.584102132091E+00  0.598695889120E+00  0.613587532760E+00  0.628777459783E+00
  0.644265493618E+00  0.660050827521E+00  0.676131963758E+00  0.692506648598E+00  0.709171802959E+00
  0.726123448506E+00  0.743356629069E+00  0.760865327205E+00  0.778642375794E+00  0.796679364553E+00
  0.814966541390E+00  0.833492708565E+00  0.852245113642E+00  0.871209335298E+00  0.890369164088E+00
  0.909706478355E+00  0.929201115532E+00  0.948830739196E+00  0.968570702328E+00  0.988393907354E+00
  0.100827066368E+01  0.102816854356E+01  0.104805223738E+01  0.106788340945E+01  0.108762055589E+01
  0.110721886601E+01  0.112663008927E+01  0.114580240977E+01  0.116468033061E+01  0.118320457096E+01
  0.120131197846E+01  0.121893546036E+01  0.123600393662E+01  0.125244231888E+01  0.126817151897E+01
  0.128310849113E+01  0.129716631203E+01  0.131025430283E+01  0.132227819733E+01  0.133314036002E+01
  0.134274005764E+01  0.135097378708E+01  0.135773566164E+01  0.136291785689E+01  0.136641111552E+01
  0.136810530919E+01  0.136789005317E+01  0.136565536699E+01  0.136129237146E+01  0.135469400900E+01
  0.134575577055E+01  0.133437640824E+01  0.132045860860E+01  0.130390959687E+01  0.128464163847E+01
  0.126257240036E+01  0.123762513141E+01  0.120972861986E+01  0.117881688609E+01  0.114482857183E+01
  0.110770599415E+01  0.106739384342E+01  0.102383752190E+01  0.976981143911E+00  0.926765250336E+00
  0.873124915825E+00  0.816058604858E+00  0.755700026131E+00  0.692199038567E+00  0.000000000000E+00
  0.000000000000E+00  0.000000000000E+00  0.000000000000E+00  0.000000000000E+00  0.000000000000E+00
  0.000000000000E+00  0.000000000000E+00  0.000000000000E+00  0.000000000000E+00  0.000000000000E+00
  0.000000000000E+00  0.000000000000E+00  0.000000000000E+00  0.000000000000E+00  0.000000000000E+00
  0.000000000000E+00  0.000000000000E+00  0.000000000000E+00  0.000000000000E+00  0.000000000000E+00
  0.000000000000E+00  0.000000000000E+00  0.000000000000E+00  0.000000000000E+00  0.000000000000E+00
  0.000000000000E+00  0.000000000000E+00  0.000000000000E+00  0.000000000000E+00  0.000000000000E+00
  0.000000000000E+00  0.000000000000E+00  0.000000000000E+00  0.000000000000E+00  0.000000000000E+00
  0.000000000000E+00  0.000000000000E+00  0.000000000000E+00  0.000000000000E+00  0.000000000000E+00
  0.000000000000E+00  0.000000000000E+00
 ae wavefunction
 -0.237999696371E-02 -0.244231515320E-02 -0.250625938240E-02 -0.257187177619E-02 -0.263919553463E-02
 -0.270827495963E-02 -0.277915548214E-02 -0.285188369000E-02 -0.292650735641E-02 -0.300307546902E-02
 -0.308163825976E-02 -0.316224723521E-02 -0.324495520776E-02 -0.332981632744E-02 -0.341688611432E-02
 -0.350622149184E-02 -0.359788082069E-02 -0.369192393347E-02 -0.378841217009E-02 -0.388740841397E-02
 -0.398897712891E-02 -0.409318439681E-02 -0.420009795610E-02 -0.430978724113E-02 -0.442232342193E-02
 -0.453777944554E-02 -0.465623007721E-02 -0.477775194324E-02 -0.490242357422E-02 -0.503032544914E-02
 -0.516154004056E-02 -0.529615186032E-02 -0.543424750644E-02 -0.557591571060E-02 -0.572124738665E-02
 -0.587033567994E-02 -0.602327601747E-02 -0.618016615905E-02 -0.634110624916E-02 -0.650619886978E-02
 -0.667554909410E-02 -0.684926454098E-02 -0.702745543042E-02 -0.721023463977E-02 -0.739771776078E-02
 -0.759002315753E-02 -0.778727202514E-02 -0.798958844931E-02 -0.819709946657E-02 -0.840993512537E-02
 -0.862822854786E-02 -0.885211599240E-02 -0.908173691673E-02 -0.931723404183E-02 -0.955875341634E-02
 -0.980644448160E-02 -0.100604601372E-01 -0.103209568071E-01 -0.105880945059E-01 -0.108620369059E-01
 -0.111429514042E-01 -0.114310091901E-01 -0.117263853126E-01 -0.120292587483E-01 -0.123398124690E-01
 -0.126582335094E-01 -0.129847130344E-01 -0.133194464065E-01 -0.136626332525E-01 -0.140144775300E-01
 -0.143751875926E-01 -0.147449762554E-01 -0.151240608585E-01 -0.155126633303E-01 -0.159110102488E-01
 -0.163193329019E-01 -0.167378673464E-01 -0.171668544644E-01 -0.176065400180E-01 -0.180571747022E-01
 -0.185190141948E-01 -0.189923192033E-01 -0.194773555095E-01 -0.199743940100E-01 -0.204837107538E-01
 -0.210055869753E-01 -0.215403091231E-01 -0.220881688845E-01 -0.226494632044E-01 -0.232244942993E-01
 -0.238135696645E-01 -0.244170020759E-01 -0.250351095842E-01 -0.256682155022E-01 -0.263166483836E-01
 -0.269807419941E-01 -0.276608352726E-01 -0.283572722832E-01 -0.290704021564E-01 -0.298005790198E-01
 -0.305481619163E-01 -0.313135147098E-01 -0.320970059783E-01 -0.328990088911E-01 -0.337199010728E-01
 -0.345600644491E-01 -0.354198850774E-01 -0.362997529576E-01 -0.372000618250E-01 -0.381212089218E-01
 -0.390635947476E-01 -0.400276227868E-01 -0.410136992120E-01 -0.420222325618E-01 -0.430536333919E-01
 -0.441083138974E-01 -0.451866875052E-01 -0.462891684354E-01 -0.474161712286E-01 -0.485681102387E-01
 -0.497453990884E-01 -0.509484500868E-01 -0.521776736049E-01 -0.534334774097E-01 -0.547162659524E-01
 -0.560264396101E-01 -0.573643938774E-01 -0.587305185069E-01 -0.601251965952E-01 -0.615488036119E-01
 -0.630017063695E-01 -0.644842619312E-01 -0.659968164539E-01 -0.675397039632E-01 -0.691132450580E-01
 -0.707177455419E-01 -0.723534949767E-01 -0.740207651578E-01 -0.757198085047E-01 -0.774508563665E-01
 -0.792141172371E-01 -0.810097748777E-01 -0.828379863424E-01 -0.846988799043E-01 -0.865925528778E-01
 -0.885190693343E-01 -0.904784577074E-01 -0.924707082835E-01 -0.944957705764E-01 -0.965535505794E-01
 -0.986439078943E-01 -0.100766652732E+00 -0.102921542785E+00 -0.105108279958E+00 -0.107326506975E+00
 -0.109575803834E+00 -0.111855684125E+00 -0.114165591205E+00 -0.116504894225E+00 -0.118872884005E+00
 -0.121268768766E+00 -0.123691669702E+00 -0.126140616415E+00 -0.128614542181E+00 -0.131112279079E+00
 -0.133632552964E+00 -0.136173978291E+00 -0.138735052800E+00 -0.141314152050E+00 -0.143909523823E+00
 -0.146519282391E+00 -0.149141402658E+00 -0.151773714185E+00 -0.154413895102E+00 -0.157059465920E+00
 -0.159707783262E+00 -0.162356033511E+00 -0.165001226398E+00 -0.167640188556E+00 -0.170269557037E+00
 -0.172885772837E+00 -0.175485074433E+00 -0.178063491365E+00 -0.180616837897E+00 -0.183140706776E+00
 -0.185630463129E+00 -0.188081238537E+00 -0.190487925316E+00 -0.192845171065E+00 -0.195147373503E+00
 -0.197388675668E+00 -0.199562961525E+00 -0.201663852027E+00 -0.203684701715E+00 -0.205618595902E+00
 -0.207458348523E+00 -0.209196500722E+00 -0.210825320257E+00 -0.212336801806E+00 -0.213722668258E+00
 -0.214974373096E+00 -0.216083103950E+00 -0.217039787448E+00 -0.217835095442E+00 -0.218459452750E+00
 -0.218903046513E+00 -0.219155837294E+00 -0.219207572032E+00 -0.219047799005E+00 -0.218665884900E+00
 -0.218051034150E+00 -0.217192310659E+00 -0.216078662057E+00 -0.214698946624E+00 -0.213041963021E+00
 -0.211096482958E+00 -0.208851286940E+00 -0.206295203223E+00 -0.203417150103E+00 -0.200206181646E+00
 -0.196651537001E+00 -0.192742693362E+00 -0.188469422694E+00 -0.183821852288E+00 -0.178790529210E+00
 -0.173366488684E+00 -0.167541326427E+00 -0.161307274936E+00 -0.154657283700E+00 -0.147585103272E+00
 -0.140085373115E+00 -0.132153713083E+00 -0.123786818388E+00 -0.114982557823E+00 -0.105740074990E+00
 -0.960598922232E-01 -0.859440168380E-01 -0.753960492776E-01 -0.644212926686E-01 -0.530268632234E-01
 -0.412218008606E-01 -0.290171793455E-01 -0.164262151836E-01 -0.346437444046E-02  0.985052338866E-02
  0.234982053755E-01  0.374558499590E-01  0.516979975021E-01  0.661964675671E-01  0.809202838982E-01
  0.958356081502E-01  0.110905683504E+00  0.126090789458E+00  0.141348209291E+00  0.156632211914E+00
  0.171894050051E+00  0.187081976899E+00  0.202141283507E+00  0.217014359157E+00  0.231640776961E+00
  0.245957406639E+00  0.259898556213E+00  0.273396143977E+00  0.286379901797E+00  0.298777610560E+00
  0.310515368424E+00  0.321517892386E+00  0.331708853596E+00  0.341011246669E+00  0.349347793005E+00
  0.356641377880E+00  0.362815520704E+00  0.367794877491E+00  0.371505774242E+00  0.373876769533E+00
  0.374839244186E+00  0.374328015535E+00  0.372281973287E+00  0.368644733571E+00  0.363365307215E+00
  0.356398777841E+00  0.347706984776E+00  0.337259205266E+00  0.325032829943E+00  0.311014024923E+00
  0.295198373430E+00  0.277591489327E+00  0.258209594560E+00  0.237080052075E+00  0.214241845634E+00
  0.189745997677E+00  0.163655916452E+00  0.136047663658E+00  0.107010134058E+00  0.766451387958E-01
  0.450673843979E-01  0.124043398462E-01 -0.212040154997E-01 -0.556055695085E-01 -0.906365851886E-01
 -0.126122340588E+00 -0.161877897139E+00 -0.197708985386E+00 -0.233412988498E+00 -0.268779997566E+00
 -0.303593913579E+00 -0.337633583689E+00 -0.370673985776E+00 -0.402487508417E+00 -0.432845396244E+00
 -0.461519419893E+00 -0.488283773965E+00 -0.512917131737E+00 -0.535204741632E+00 -0.554940465867E+00
 -0.571928712167E+00 -0.585986253525E+00 -0.596943947458E+00 -0.604648360913E+00 -0.608963294403E+00
 -0.609771187331E+00 -0.606974380172E+00 -0.600496208680E+00 -0.590281908529E+00 -0.576299314894E+00
 -0.558539348247E+00 -0.537016284249E+00 -0.511767810686E+00 -0.482854879071E+00 -0.450361361277E+00
 -0.414393524077E+00 -0.375079335601E+00 -0.332567618989E+00 -0.287027068151E+00 -0.238645141169E+00
 -0.187626845602E+00 -0.134193429532E+00 -0.785809912847E-01 -0.210390191901E-01  0.381711275906E-01
  0.987777875292E-01  0.160500605050E+00  0.223052169640E+00  0.286139676501E+00  0.349466599136E+00
  0.412734363322E+00  0.475644011967E+00  0.537897848932E+00  0.599201051013E+00  0.659263237187E+00
  0.717799986737E+00  0.774534298918E+00  0.829197990435E+00  0.881533027877E+00  0.931292792746E+00
  0.978243273276E+00  0.102216417054E+01  0.106284989521E+01  0.110011041823E+01  0.113377192818E+01
  0.116367724627E+01  0.118968596590E+01  0.121167431864E+01  0.122953482329E+01  0.124317582802E+01
  0.125252108735E+01  0.125750950856E+01  0.125809514591E+01  0.125424744180E+01  0.124595163376E+01
  0.123320920314E+01  0.121603823132E+01  0.119447354917E+01  0.116856662897E+01  0.113838516173E+01
  0.110401234026E+01  0.106554584668E+01  0.102309656683E+01  0.976787048051E+00  0.926749725135E+00
  0.873124915825E+00  0.816058604858E+00  0.755700026131E+00  0.692199038567E+00  0.000000000000E+00
  0.000000000000E+00  0.000000000000E+00  0.000000000000E+00  0.000000000000E+00  0.000000000000E+00
  0.000000000000E+00  0.000000000000E+00  0.000000000000E+00  0.000000000000E+00  0.000000000000E+00
  0.000000000000E+00  0.000000000000E+00  0.000000000000E+00  0.000000000000E+00  0.000000000000E+00
  0.000000000000E+00  0.000000000000E+00  0.000000000000E+00  0.000000000000E+00  0.000000000000E+00
  0.000000000000E+00  0.000000000000E+00  0.000000000000E+00  0.000000000000E+00  0.000000000000E+00
  0.000000000000E+00  0.000000000000E+00  0.000000000000E+00  0.000000000000E+00  0.000000000000E+00
  0.000000000000E+00  0.000000000000E+00  0.000000000000E+00  0.000000000000E+00  0.000000000000E+00
  0.000000000000E+00  0.000000000000E+00  0.000000000000E+00  0.000000000000E+00  0.000000000000E+00
  0.000000000000E+00  0.000000000000E+00
 pseudo wavefunction
  0.551428758850E-08  0.581636676996E-08  0.613499420541E-08  0.647107642772E-08  0.682556963070E-08
  0.719948238960E-08  0.759387853058E-08  0.800988015748E-08  0.844867084430E-08  0.891149900262E-08
  0.939968143346E-08  0.991460707378E-08  0.104577409481E-07  0.110306283368E-07  0.116348991725E-07
  0.122722726773E-07  0.129445622545E-07  0.136536806477E-07  0.144016453828E-07  0.151905845084E-07
  0.160227426497E-07  0.169004873953E-07  0.178263160332E-07  0.188028626557E-07  0.198329056537E-07
  0.209193756216E-07  0.220653636954E-07  0.232741303470E-07  0.245491146607E-07  0.258939441182E-07
  0.273124449186E-07  0.288086528648E-07  0.303868248457E-07  0.320514509476E-07  0.338072672290E-07
  0.356592691951E-07  0.376127260110E-07  0.396731954926E-07  0.418465399196E-07  0.441389427142E-07
  0.465569260336E-07  0.491073693266E-07  0.517975289061E-07  0.546350585945E-07  0.576280314993E-07
  0.607849629823E-07  0.641148348868E-07  0.676271210922E-07  0.713318144675E-07  0.752394553032E-07
  0.793611612989E-07  0.837086591949E-07  0.882943181359E-07  0.931311848625E-07  0.982330208312E-07
  0.103614341367E-06  0.109290456961E-06  0.115277516830E-06  0.121592554866E-06  0.128253538094E-06
  0.135279417796E-06  0.142690183426E-06  0.150506919483E-06  0.158751865498E-06  0.167448479313E-06
  0.176621503812E-06  0.186297037326E-06  0.196502607883E-06  0.207267251523E-06  0.218621594919E-06
  0.230597942505E-06  0.243230368387E-06  0.256554813291E-06  0.270609186816E-06  0.285433475292E-06
  0.301069855543E-06  0.317562814888E-06  0.334959277710E-06  0.353308738962E-06  0.372663404985E-06
  0.393078342040E-06  0.414611632980E-06  0.437324542498E-06  0.461281691434E-06  0.486551240628E-06
  0.513205084843E-06  0.541319057314E-06  0.570973145502E-06  0.602251718665E-06  0.635243767898E-06
  0.670043159319E-06  0.706748901130E-06  0.745465425306E-06  0.786302884709E-06  0.829377466487E-06
  0.874811722635E-06  0.922734918669E-06  0.973283401396E-06  0.102660098683E-05  0.108283936938E-05
  0.114215855338E-05  0.120472730839E-05  0.127072364931E-05  0.134033534285E-05  0.141376044174E-05
  0.149120784822E-05  0.157289790839E-05  0.165906303907E-05  0.174994838907E-05  0.184581253665E-05
  0.194692822518E-05  0.205358313913E-05  0.216608072253E-05  0.228474104229E-05  0.240990169879E-05
  0.254191878640E-05  0.268116790655E-05  0.282804523635E-05  0.298296865569E-05  0.314637893618E-05
  0.331874099507E-05  0.350054521803E-05  0.369230885423E-05  0.389457748797E-05  0.410792659081E-05
  0.433296315882E-05  0.457032743945E-05  0.482069475303E-05  0.508477741401E-05  0.536332675749E-05
  0.565713527670E-05  0.596703887761E-05  0.629391925702E-05  0.663870641088E-05  0.700238128012E-05
  0.738597854121E-05  0.779058954978E-05  0.821736544536E-05  0.866752042617E-05  0.914233520335E-05
  0.964316064436E-05  0.101714216159E-04  0.107286210374E-04  0.113163441565E-04  0.119362630585E-04
  0.125901414234E-04  0.132798395426E-04  0.140073196111E-04  0.147746513094E-04  0.155840176906E-04
  0.164377213909E-04  0.173381911790E-04  0.182879888654E-04  0.192898165894E-04  0.203465245053E-04
  0.214611188894E-04  0.226367706913E-04  0.238768245534E-04  0.251848083239E-04  0.265644430913E-04
  0.280196537683E-04  0.295545802547E-04  0.311735892123E-04  0.328812864838E-04  0.346825301925E-04
  0.365824445586E-04  0.385864344719E-04  0.407002008632E-04  0.429297569159E-04  0.452814451666E-04
  0.477619555405E-04  0.503783443750E-04  0.531380544843E-04  0.560489363223E-04  0.591192703038E-04
  0.623577903473E-04  0.657737087068E-04  0.693767421620E-04  0.731771396415E-04  0.771857113587E-04
  0.814138595406E-04  0.858736108387E-04  0.905776505129E-04  0.955393584853E-04  0.100772847366E-03
  0.106293002561E-03  0.112115524568E-03  0.118256973594E-03  0.124734816605E-03  0.131567476948E-03
  0.138774386699E-03  0.146376041850E-03  0.154394060536E-03  0.162851244427E-03  0.171771643484E-03
  0.181180624249E-03  0.191104941867E-03  0.201572816046E-03  0.212614011157E-03  0.224259920714E-03
  0.236543656464E-03  0.249500142344E-03  0.263166213557E-03  0.277580721062E-03  0.292784641759E-03
  0.308821194690E-03  0.325735963562E-03  0.343577025967E-03  0.362395089626E-03  0.382243636073E-03
  0.403179072144E-03  0.425260889737E-03  0.448551834246E-03  0.473118082175E-03  0.499029428400E-03
  0.526359483620E-03  0.555185882534E-03  0.585590503326E-03  0.617659699067E-03  0.651484541672E-03
  0.687161079093E-03  0.724790606450E-03  0.764479951849E-03  0.806341777679E-03  0.850494898211E-03
  0.897064614364E-03  0.946183066561E-03  0.997989606642E-03  0.105263118982E-02  0.111026278781E-02
  0.117104782410E-02  0.123515863279E-02  0.130277694197E-02  0.137409438307E-02  0.144931302757E-02
  0.152864595243E-02  0.161231783572E-02  0.170056558415E-02  0.179363899405E-02  0.189180144746E-02
  0.199533064542E-02  0.210451938004E-02  0.221967634750E-02  0.234112700416E-02  0.246921446774E-02
  0.260430046604E-02  0.274676633548E-02  0.289701407205E-02  0.305546743717E-02  0.322257312129E-02
  0.339880196791E-02  0.358465026119E-02  0.378064108003E-02  0.398732572195E-02  0.420528519998E-02
  0.443513181616E-02  0.467751081512E-02  0.493310212145E-02  0.520262216477E-02  0.548682579646E-02
  0.578650830202E-02  0.610250751347E-02  0.643570602588E-02  0.678703352276E-02  0.715746921452E-02
  0.754804439496E-02  0.795984512025E-02  0.839401501536E-02  0.885175821264E-02  0.933434242757E-02
  0.984310217638E-02  0.103794421406E-01  0.109448406829E-01  0.115408535199E-01  0.121691175551E-01
  0.128313548778E-01  0.135293769308E-01  0.142650888521E-01  0.150404939933E-01  0.158576986171E-01
  0.167189167784E-01  0.176264753887E-01  0.185828194662E-01  0.195905175716E-01  0.206522674279E-01
  0.217709017238E-01  0.229493940958E-01  0.241908652846E-01  0.254985894591E-01  0.268760006991E-01
  0.283266996250E-01  0.298544601620E-01  0.314632364199E-01  0.331571696711E-01  0.349405953998E-01
  0.368180503977E-01  0.387942798704E-01  0.408742445184E-01  0.430631275492E-01  0.453663415681E-01
  0.477895352939E-01  0.503386000307E-01  0.530196758256E-01  0.558391572262E-01  0.588036985465E-01
  0.619202185350E-01  0.651959043282E-01  0.686382145590E-01  0.722548814741E-01  0.760539119004E-01
  0.800435868804E-01  0.842324597835E-01  0.886293526745E-01  0.932433507052E-01  0.980837942703E-01
  0.103160268646E+00  0.108482590809E+00  0.114060793099E+00  0.119905103384E+00  0.126025921327E+00
  0.132433790363E+00  0.139139364950E+00  0.146153372629E+00  0.153486570421E+00  0.161149695054E+00
  0.169153406506E+00  0.177508224318E+00  0.186224456156E+00  0.195312118064E+00  0.204780845879E+00
  0.214639797305E+00  0.224897544147E+00  0.235561954283E+00  0.246640063009E+00  0.258137933470E+00
  0.270060506025E+00  0.282411436512E+00  0.295192923581E+00  0.308405525458E+00  0.322047966762E+00
  0.336116936302E+00  0.350606877130E+00  0.365509770516E+00  0.380814915999E+00  0.396508710140E+00
  0.412574427220E+00  0.428992005715E+00  0.445737845077E+00  0.462784618050E+00  0.480101104500E+00
  0.497652053460E+00  0.515398080833E+00  0.533295610835E+00  0.551296869820E+00  0.569349941523E+00
  0.587398892878E+00  0.605383979437E+00  0.623241938769E+00  0.640906379104E+00  0.658308268635E+00
  0.675376528243E+00  0.692038726747E+00  0.708221872964E+00  0.723853292722E+00  0.738861571332E+00
  0.753177532800E+00  0.766735216153E+00  0.779472796692E+00  0.791333385864E+00  0.802265628115E+00
  0.812223996972E+00  0.821168676513E+00  0.829064899414E+00  0.835881600410E+00  0.841589236193E+00
  0.846156622062E+00  0.849546644927E+00  0.851710735214E+00  0.852582020762E+00  0.852067148306E+00
  0.850033795873E+00  0.846388215163E+00  0.841144574415E+00  0.834341714633E+00  0.826025007069E+00
  0.816246094384E+00  0.805062592122E+00  0.792537760939E+00  0.778740139660E+00  0.763743140722E+00
  0.747624619292E+00  0.730466396463E+00  0.712353747666E+00  0.693374852743E+00  0.673620205157E+00
  0.653181985884E+00  0.632153405630E+00  0.610628023574E+00  0.588699053092E+00  0.566458668398E+00
  0.543997326855E+00  0.521403123247E+00  0.498761191651E+00  0.476153173061E+00  0.453656736920E+00
  0.431345224398E+00  0.409287339354E+00  0.387546947884E+00  0.366182960602E+00  0.345249296251E+00
  0.324794918510E+00  0.304863935250E+00  0.285495747430E+00  0.266725233205E+00  0.248582951692E+00
  0.231095350676E+00  0.214284963222E+00  0.198170580165E+00  0.182767388696E+00  0.168087071686E+00
  0.154137867629E+00  0.140924596491E+00  0.128448661672E+00  0.116708041956E+00  0.105697289288E+00
  0.954075481415E-01  0.858266104274E-01
 ae wavefunction
  0.210430646261E-05  0.220724728913E-05  0.231492765267E-05  0.242758084982E-05  0.254545115718E-05
  0.266879438254E-05  0.279787844215E-05  0.293298396736E-05  0.307440494014E-05  0.322244936065E-05
  0.337743994721E-05  0.353971487139E-05  0.370962852941E-05  0.388755235162E-05  0.407387565347E-05
  0.426900652732E-05  0.447337278063E-05  0.468742292037E-05  0.491162718677E-05  0.514647863943E-05
  0.539249429885E-05  0.565021634424E-05  0.592021337368E-05  0.620308172467E-05  0.649944687018E-05
  0.680996486985E-05  0.713532391533E-05  0.747624593621E-05  0.783348829821E-05  0.820784558503E-05
  0.860015146953E-05  0.901128068584E-05  0.944215109341E-05  0.989372585636E-05  0.103670157278E-04
  0.108630814536E-04  0.113830363005E-04  0.119280487119E-04  0.124993451003E-04  0.130982127856E-04
  0.137260030821E-04  0.143841345450E-04  0.150740963844E-04  0.157974520549E-04  0.165558430309E-04
  0.173509927760E-04  0.181847109167E-04  0.190588976332E-04  0.199755482754E-04  0.209367582182E-04
  0.219447279678E-04  0.230017685312E-04  0.241103070649E-04  0.252728928141E-04  0.264922033603E-04
  0.277710511921E-04  0.291123906156E-04  0.305193250228E-04  0.319951145365E-04  0.335431840503E-04
  0.351671316851E-04  0.368707376832E-04  0.386579737629E-04  0.405330129562E-04  0.425002399567E-04
  0.445642620012E-04  0.467299203148E-04  0.490023021472E-04  0.513867534295E-04  0.538888920870E-04
  0.565146220367E-04  0.592701479051E-04  0.621619905120E-04  0.651970031404E-04  0.683823886536E-04
  0.717257174878E-04  0.752349465701E-04  0.789184392047E-04  0.827849859899E-04  0.868438267873E-04
  0.911046738394E-04  0.955777360438E-04  0.100273744492E-03  0.105203979290E-03  0.110380297757E-03
  0.115815164054E-03  0.121521680322E-03  0.127513619386E-03  0.133805459141E-03  0.140412418645E-03
  0.147350496063E-03  0.154636508502E-03  0.162288133856E-03  0.170323954763E-03  0.178763504742E-03
  0.187627316660E-03  0.196936973601E-03  0.206715162274E-03  0.216985729077E-03  0.227773738930E-03
  0.239105537027E-03  0.251008813625E-03  0.263512672018E-03  0.276647699856E-03  0.290446043934E-03
  0.304941488643E-03  0.320169538222E-03  0.336167503006E-03  0.352974589825E-03  0.370631996765E-03
  0.389183012469E-03  0.408673120177E-03  0.429150106722E-03  0.450664176689E-03  0.473268071966E-03
  0.497017196891E-03  0.521969749318E-03  0.548186857673E-03  0.575732724485E-03  0.604674776443E-03
  0.635083821380E-03  0.667034212384E-03  0.700604019402E-03  0.735875208500E-03  0.772933829242E-03
  0.811870210322E-03  0.852779163909E-03  0.895760198923E-03  0.940917743610E-03  0.988361377736E-03
  0.103820607474E-02  0.109057245417E-02  0.114558704478E-02  0.120338255853E-02  0.126409817605E-02
  0.132787984360E-02  0.139488058219E-02  0.146526080898E-02  0.153918867142E-02  0.161684039437E-02
  0.169840064061E-02  0.178406288502E-02  0.187402980273E-02  0.196851367155E-02  0.206773678884E-02
  0.217193190331E-02  0.228134266174E-02  0.239622407086E-02  0.251684297474E-02  0.264347854753E-02
  0.277642280186E-02  0.291598111288E-02  0.306247275783E-02  0.321623147124E-02  0.337760601547E-02
  0.354696076644E-02  0.372467631427E-02  0.391115007845E-02  0.410679693702E-02  0.431204986924E-02
  0.452736061093E-02  0.475320032183E-02  0.499006026382E-02  0.523845248898E-02  0.549891053620E-02
  0.577199013479E-02  0.605826991351E-02  0.635835211307E-02  0.667286330003E-02  0.700245507975E-02
  0.734780480566E-02  0.770961628222E-02  0.808862045795E-02  0.848557610540E-02  0.890127048386E-02
  0.933651998078E-02  0.979217072704E-02  0.102690991812E-01  0.107682126768E-01  0.112904499277E-01
  0.118367814830E-01  0.124082101271E-01  0.130057712149E-01  0.136305329355E-01  0.142835964947E-01
  0.149660962074E-01  0.156791994895E-01  0.164241067379E-01  0.172020510885E-01  0.180142980381E-01
  0.188621449177E-01  0.197469202042E-01  0.206699826534E-01  0.216327202412E-01  0.226365488943E-01
  0.236829109945E-01  0.247732736368E-01  0.259091266235E-01  0.270919801724E-01  0.283233623197E-01
  0.296048159948E-01  0.309378957431E-01  0.323241640760E-01  0.337651874198E-01  0.352625316419E-01
  0.368177571257E-01  0.384324133697E-01  0.401080330821E-01  0.418461257458E-01  0.436481706230E-01
  0.455156091762E-01  0.474498368734E-01  0.494521943537E-01  0.515239579256E-01  0.536663293711E-01
  0.558804250320E-01  0.581672641546E-01  0.605277564712E-01  0.629626889973E-01  0.654727120300E-01
  0.680583243309E-01  0.707198574837E-01  0.734574594199E-01  0.762710771096E-01  0.791604384207E-01
  0.821250331544E-01  0.851640932728E-01  0.882765723397E-01  0.914611242059E-01  0.947160809778E-01
  0.980394303172E-01  0.101428792133E+00  0.104881394739E+00  0.108394050550E+00  0.111963131439E+00
  0.115584543833E+00  0.119253703716E+00  0.122965511639E+00  0.126714327943E+00  0.130493948322E+00
  0.134297579947E+00  0.138117818330E+00  0.141946625128E+00  0.145775307084E+00  0.149594496317E+00
  0.153394132118E+00  0.157163444455E+00  0.160890939367E+00  0.164564386414E+00  0.168170808455E+00
  0.171696474019E+00  0.175126892678E+00  0.178446813914E+00  0.181640230118E+00  0.184690384413E+00
  0.187579784122E+00  0.190290220666E+00  0.192802796686E+00  0.195097961091E+00  0.197155552579E+00
  0.198954852069E+00  0.200474644242E+00  0.201693288295E+00  0.202588797893E+00  0.203138930273E+00
  0.203321284500E+00  0.203113408888E+00  0.202492917651E+00  0.201437616818E+00  0.199925639379E+00
  0.197935589581E+00  0.195446696157E+00  0.192438974176E+00  0.188893395119E+00  0.184792064641E+00
  0.180118407402E+00  0.174857358208E+00  0.168995558585E+00  0.162521557773E+00  0.155426016952E+00
  0.147701915386E+00  0.139344756990E+00  0.130352775622E+00  0.120727137290E+00  0.110472137234E+00
  0.995953897055E-01  0.881080081042E-01  0.760247730092E-01  0.633642855049E-01  0.501491031591E-01
  0.364058559299E-01  0.221653392946E-01  0.746258188951E-02 -0.766311500362E-02 -0.231681687616E-01
 -0.390047401134E-01 -0.551207937779E-01 -0.714601974716E-01 -0.879628613529E-01 -0.104564919117E+00
 -0.121198950282E+00 -0.137794240486E+00 -0.154277072866E+00 -0.170571039836E+00 -0.186597362529E+00
 -0.202275207600E+00 -0.217521999777E+00 -0.232253744003E+00 -0.246385388356E+00 -0.259831268974E+00
 -0.272505668662E+00 -0.284323487826E+00 -0.295200986125E+00 -0.305056533445E+00 -0.313811321786E+00
 -0.321390019794E+00 -0.327721375546E+00 -0.332738780747E+00 -0.336380805181E+00 -0.338591702604E+00
 -0.339321882442E+00 -0.338528338005E+00 -0.336175021281E+00 -0.332233155642E+00 -0.326681480491E+00
 -0.319506424824E+00 -0.310702209512E+00 -0.300270880150E+00 -0.288222274180E+00 -0.274573926890E+00
 -0.259350921757E+00 -0.242585690815E+00 -0.224317771064E+00 -0.204593522507E+00 -0.183465813579E+00
 -0.160993678880E+00 -0.137241953846E+00 -0.112280890475E+00 -0.861857572246E-01 -0.590364261371E-01
 -0.309169492224E-01 -0.191512613052E-02  0.278779353453E-01  0.583682642916E-01  0.894594755464E-01
  0.121053220419E+00  0.153049637044E+00  0.185347797720E+00  0.217846150654E+00  0.250442953519E+00
  0.283036697048E+00  0.315526517386E+00  0.347812597410E+00  0.379796557804E+00  0.411381839079E+00
  0.442474074300E+00  0.472981449194E+00  0.502815040613E+00  0.531889116863E+00  0.560121376394E+00
  0.587433097293E+00  0.613749174803E+00  0.638998039162E+00  0.663111473607E+00  0.686024383606E+00
  0.707674592260E+00  0.728002742631E+00  0.746952366743E+00  0.764470143162E+00  0.780506320381E+00
  0.795015253689E+00  0.807955989570E+00  0.819292834185E+00  0.828995874621E+00  0.837041412290E+00
  0.843412314905E+00  0.848098278935E+00  0.851096010991E+00  0.852409332880E+00  0.852049223763E+00
  0.850033795873E+00  0.846388215163E+00  0.841144574415E+00  0.834341714633E+00  0.826025007069E+00
  0.816246094384E+00  0.805062592122E+00  0.792537760939E+00  0.778740139660E+00  0.763743140722E+00
  0.747624619292E+00  0.730466396463E+00  0.712353747666E+00  0.693374852743E+00  0.673620205157E+00
  0.653181985884E+00  0.632153405630E+00  0.610628023574E+00  0.588699053092E+00  0.566458668398E+00
  0.543997326855E+00  0.521403123247E+00  0.498761191651E+00  0.476153173061E+00  0.453656736920E+00
  0.431345224398E+00  0.409287339354E+00  0.387546947884E+00  0.366182960602E+00  0.345249296251E+00
  0.324794918510E+00  0.304863935250E+00  0.285495747430E+00  0.266725233205E+00  0.248582951692E+00
  0.231095350676E+00  0.214284963222E+00  0.198170580165E+00  0.182767388696E+00  0.168087071686E+00
  0.154137867629E+00  0.140924596491E+00  0.128448661672E+00  0.116708041956E+00  0.105697289288E+00
  0.954075481415E-01  0.858266104274E-01
 pseudo wavefunction
  0.108606368830E-07  0.114555953878E-07  0.120831464215E-07  0.127450754412E-07  0.134432657136E-07
  0.141797036729E-07  0.149564845724E-07  0.157758184460E-07  0.166400363959E-07  0.175515972245E-07
  0.185130944307E-07  0.195272635881E-07  0.205969901282E-07  0.217253175501E-07  0.229154560791E-07
  0.241707918004E-07  0.254948962932E-07  0.268915367919E-07  0.283646869042E-07  0.299185379170E-07
  0.315575107207E-07  0.332862683874E-07  0.351097294375E-07  0.370330818341E-07  0.390617977427E-07
  0.412016491006E-07  0.434587240386E-07  0.458394442024E-07  0.483505830232E-07  0.509992849884E-07
  0.537930859691E-07  0.567399346600E-07  0.598482151949E-07  0.631267710000E-07  0.665849299550E-07
  0.702325309316E-07  0.740799517865E-07  0.781381388876E-07  0.824186382576E-07  0.869336284237E-07
  0.916959550673E-07  0.967191675711E-07  0.102017557569E-06  0.107606199607E-06  0.113500994032E-06
  0.119718712231E-06  0.126277044349E-06  0.133194649613E-06  0.140491209428E-06  0.148187483369E-06
  0.156305368243E-06  0.164867960391E-06  0.173899621396E-06  0.183426047401E-06  0.193474342210E-06
  0.204073094405E-06  0.215252458684E-06  0.227044241656E-06  0.239481992330E-06  0.252601097569E-06
  0.266438882770E-06  0.281034718058E-06  0.296430130297E-06  0.312668921242E-06  0.329797292157E-06
  0.347863975264E-06  0.366920372392E-06  0.387020701220E-06  0.408222149535E-06  0.430585037931E-06
  0.454172991437E-06  0.479053120531E-06  0.505296212076E-06  0.532976930722E-06  0.562174031329E-06
  0.592970583038E-06  0.625454205608E-06  0.659717318705E-06  0.695857404848E-06  0.733977286752E-06
  0.774185419876E-06  0.816596200983E-06  0.861330293617E-06  0.908514971400E-06  0.958284480139E-06
  0.101078041977E-05  0.106615214721E-05  0.112455720134E-05  0.118616175114E-05  0.125114106853E-05
  0.131968002700E-05  0.139197362759E-05  0.146822755369E-05  0.154865875626E-05  0.163349607100E-05
  0.172298086951E-05  0.181736774592E-05  0.191692524128E-05  0.202193660759E-05  0.213270061363E-05
  0.224953239502E-05  0.237276435081E-05  0.250274708915E-05  0.263985042481E-05  0.278446443133E-05
  0.293700055082E-05  0.309789276451E-05  0.326759882747E-05  0.344660157096E-05  0.363541027610E-05
  0.383456212280E-05  0.404462371806E-05  0.426619270803E-05  0.449989947827E-05  0.474640894727E-05
  0.500642245818E-05  0.528067977408E-05  0.556996118271E-05  0.587508971634E-05  0.619693349331E-05
  0.653640818788E-05  0.689447963528E-05  0.727216657951E-05  0.767054357169E-05  0.809074402706E-05
  0.853396344962E-05  0.900146283319E-05  0.949457224897E-05  0.100146946294E-04  0.105633097597E-04
  0.111419784873E-04  0.117523471627E-04  0.123961523230E-04  0.130752256324E-04  0.137914990925E-04
  0.145470105394E-04  0.153439094404E-04  0.161844630092E-04  0.170710626555E-04  0.180062307884E-04
  0.189926279920E-04  0.200330605940E-04  0.211304886493E-04  0.222880343604E-04  0.235089909591E-04
  0.247968320751E-04  0.261552216169E-04  0.275880241944E-04  0.290993161127E-04  0.306933969667E-04
  0.323748018723E-04  0.341483143665E-04  0.360189800140E-04  0.379921207590E-04  0.400733500638E-04
  0.422685888747E-04  0.445840824643E-04  0.470264181940E-04  0.496025442512E-04  0.523197894105E-04
  0.551858838789E-04  0.582089812806E-04  0.613976818473E-04  0.647610568764E-04  0.683086745301E-04
  0.720506270455E-04  0.759975594354E-04  0.801606997600E-04  0.845518910554E-04  0.891836250108E-04
  0.940690774883E-04  0.992221459875E-04  0.104657489160E-03  0.110390568490E-03  0.116437692247E-03
  0.122816061858E-03  0.129543820803E-03  0.136640106197E-03  0.144125103188E-03  0.152020102333E-03
  0.160347560117E-03  0.169131162773E-03  0.178395893606E-03  0.188168103989E-03  0.198475588246E-03
  0.209347662632E-03  0.220815248630E-03  0.232910960800E-03  0.245669199437E-03  0.259126248289E-03
  0.273320377618E-03  0.288291952896E-03  0.304083549437E-03  0.320740073293E-03  0.338308888761E-03
  0.356839952843E-03  0.376385957064E-03  0.397002477021E-03  0.418748130103E-03  0.441684741824E-03
  0.465877521223E-03  0.491395245846E-03  0.518310456813E-03  0.546699664521E-03  0.576643565574E-03
  0.608227271525E-03  0.641540550095E-03  0.676678079526E-03  0.713739716792E-03  0.752830780413E-03
  0.794062348663E-03  0.837551573996E-03  0.883422014590E-03  0.931803983897E-03  0.982834919205E-03
  0.103665977021E-02  0.109343140870E-02  0.115331106045E-02  0.121646876057E-02  0.128308383350E-02
  0.135334539908E-02  0.142745290593E-02  0.150561669378E-02  0.158805858613E-02  0.167501251502E-02
  0.176672517942E-02  0.186345673928E-02  0.196548154687E-02  0.207308891757E-02  0.218658394215E-02
  0.230628834262E-02  0.243254137415E-02  0.256570077527E-02  0.270614376903E-02  0.285426811768E-02
  0.301049323375E-02  0.317526135037E-02  0.334903875394E-02  0.353231708243E-02  0.372561469249E-02
  0.392947809920E-02  0.414448349185E-02  0.437123832982E-02  0.461038302258E-02  0.486259269792E-02
  0.512857906303E-02  0.540909236287E-02  0.570492344076E-02  0.601690590618E-02  0.634591841502E-02
  0.669288706770E-02  0.705878793095E-02  0.744464968903E-02  0.785155643052E-02  0.828065057715E-02
  0.873313596110E-02  0.921028105776E-02  0.971342238074E-02  0.102439680466E-01  0.108034015169E-01
  0.113932855246E-01  0.120152661935E-01  0.126710773585E-01  0.133625450945E-01  0.140915924631E-01
  0.148602444844E-01  0.156706333445E-01  0.165250038447E-01  0.174257191034E-01  0.183752665179E-01
  0.193762639954E-01  0.204314664610E-01  0.215437726510E-01  0.227162322000E-01  0.239520530277E-01
  0.252546090338E-01  0.266274481067E-01  0.280743004499E-01  0.295990872337E-01  0.312059295723E-01
  0.328991578297E-01  0.346833212546E-01  0.365631979422E-01  0.385438051201E-01  0.406304097509E-01
  0.428285394427E-01  0.451439936559E-01  0.475828551894E-01  0.501515019256E-01  0.528566188102E-01
  0.557052100350E-01  0.587046113875E-01  0.618625027245E-01  0.651869205170E-01  0.686862704080E-01
  0.723693397124E-01  0.762453097808E-01  0.803237681325E-01  0.846147202554E-01  0.891286009500E-01
  0.938762850841E-01  0.988690976021E-01  0.104118822617E+00  0.109637711389E+00  0.115438488973E+00
  0.121534359286E+00  0.127939008335E+00  0.134666605277E+00  0.141731801006E+00  0.149149723867E+00
  0.156935972100E+00  0.165106602558E+00  0.173678115199E+00  0.182667432811E+00  0.192091875364E+00
  0.201969128355E+00  0.212317204421E+00  0.223154397482E+00  0.234499228557E+00  0.246370382392E+00
  0.258786633942E+00  0.271766763690E+00  0.285329460729E+00  0.299493212472E+00  0.314276179804E+00
  0.329696056413E+00  0.345769911033E+00  0.362514011265E+00  0.379943627638E+00  0.398072816565E+00
  0.416914180856E+00  0.436478606523E+00  0.456774974635E+00  0.477809847135E+00  0.499587125661E+00
  0.522107682617E+00  0.545368963988E+00  0.569364563746E+00  0.594083770056E+00  0.619511083987E+00
  0.645625712020E+00  0.672401034278E+00  0.699804051220E+00  0.727794812412E+00  0.756325832001E+00
  0.785341496652E+00  0.814777472944E+00  0.844560122595E+00  0.874605935309E+00  0.904820990582E+00
  0.935100461347E+00  0.965328173913E+00  0.995376240125E+00  0.102510477903E+01  0.105436174645E+01
  0.108298289168E+01  0.111079186066E+01  0.113760046490E+01  0.116320913393E+01  0.118740756715E+01
  0.120997559736E+01  0.123068427354E+01  0.124929716392E+01  0.126557187205E+01  0.127926174867E+01
  0.129011776961E+01  0.129789053643E+01  0.130233234076E+01  0.130319921670E+01  0.130025288908E+01
  0.129326250957E+01  0.128200605951E+01  0.126627129053E+01  0.124585607337E+01  0.122056803631E+01
  0.119022340037E+01  0.115464496410E+01  0.111365926060E+01  0.106709300813E+01  0.101476910787E+01
  0.956503251294E+00  0.892181924649E+00  0.821860935848E+00  0.745649992084E+00  0.000000000000E+00
  0.000000000000E+00  0.000000000000E+00  0.000000000000E+00  0.000000000000E+00  0.000000000000E+00
  0.000000000000E+00  0.000000000000E+00  0.000000000000E+00  0.000000000000E+00  0.000000000000E+00
  0.000000000000E+00  0.000000000000E+00  0.000000000000E+00  0.000000000000E+00  0.000000000000E+00
  0.000000000000E+00  0.000000000000E+00  0.000000000000E+00  0.000000000000E+00  0.000000000000E+00
  0.000000000000E+00  0.000000000000E+00  0.000000000000E+00  0.000000000000E+00  0.000000000000E+00
  0.000000000000E+00  0.000000000000E+00  0.000000000000E+00  0.000000000000E+00  0.000000000000E+00
  0.000000000000E+00  0.000000000000E+00  0.000000000000E+00  0.000000000000E+00  0.000000000000E+00
  0.000000000000E+00  0.000000000000E+00  0.000000000000E+00  0.000000000000E+00  0.000000000000E+00
  0.000000000000E+00  0.000000000000E+00
 ae wavefunction
  0.383928543084E-05  0.402709998529E-05  0.422356177814E-05  0.442909645687E-05  0.464414970194E-05
  0.486918823228E-05  0.510470085866E-05  0.535119959042E-05  0.560922079496E-05  0.587932641579E-05
  0.616210524950E-05  0.645817428707E-05  0.676818012116E-05  0.709280042305E-05  0.743274549529E-05
  0.778875989867E-05  0.816162416401E-05  0.855215658823E-05  0.896121512039E-05  0.938969934327E-05
  0.983855255614E-05  0.103087639601E-04  0.108013709572E-04  0.113174615599E-04  0.118581769381E-04
  0.124247140667E-04  0.130183285453E-04  0.136403375279E-04  0.142921228217E-04  0.149751341376E-04
  0.156908925042E-04  0.164409938664E-04  0.172271128507E-04  0.180510067415E-04  0.189145196490E-04
  0.198195868948E-04  0.207682396243E-04  0.217626096524E-04  0.228049345580E-04  0.238975630453E-04
  0.250429605750E-04  0.262437152895E-04  0.275025442392E-04  0.288222999338E-04  0.302059772295E-04
  0.316567205703E-04  0.331778316048E-04  0.347727771951E-04  0.364451978401E-04  0.381989165337E-04
  0.400379480803E-04  0.419665088931E-04  0.439890272980E-04  0.461101543712E-04  0.483347753378E-04
  0.506680215591E-04  0.531152831415E-04  0.556822221977E-04  0.583747867939E-04  0.611992256196E-04
  0.641621034157E-04  0.672703172025E-04  0.705311133461E-04  0.739521055083E-04  0.775412935252E-04
  0.813070832613E-04  0.852583074905E-04  0.894042478566E-04  0.937546579653E-04  0.983197876732E-04
  0.103110408627E-03  0.108137841113E-03  0.113413982312E-03  0.118951335979E-03  0.124763043677E-03
  0.130862917599E-03  0.137265475091E-03  0.143985974927E-03  0.151040455477E-03  0.158445774787E-03
  0.166219652756E-03  0.174380715427E-03  0.182948541580E-03  0.191943711667E-03  0.201387859258E-03
  0.211303725101E-03  0.221715213929E-03  0.232647454138E-03  0.244126860507E-03  0.256181200066E-03
  0.268839661312E-03  0.282132926894E-03  0.296093249961E-03  0.310754534349E-03  0.326152418771E-03
  0.342324365235E-03  0.359309751858E-03  0.377149970307E-03  0.395888528084E-03  0.415571155871E-03
  0.436245920192E-03  0.457963341614E-03  0.480776518781E-03  0.504741258511E-03  0.529916212266E-03
  0.556363019271E-03  0.584146456594E-03  0.613334596486E-03  0.643998971328E-03  0.676214746515E-03
  0.710060901618E-03  0.745620420218E-03  0.782980488751E-03  0.822232704803E-03  0.863473295210E-03
  0.906803344400E-03  0.952329033503E-03  0.100016189042E-02  0.105041905169E-02  0.110322353624E-02
  0.115870453181E-02  0.121699769438E-02  0.127824546125E-02  0.134259737806E-02  0.141021044069E-02
  0.148124945216E-02  0.155588739546E-02  0.163430582265E-02  0.171669526095E-02  0.180325563633E-02
  0.189419671533E-02  0.198973856563E-02  0.209011203597E-02  0.219555925618E-02  0.230633415781E-02
  0.242270301609E-02  0.254494501375E-02  0.267335282748E-02  0.280823323743E-02  0.294990776061E-02
  0.309871330853E-02  0.325500286988E-02  0.341914621864E-02  0.359153064822E-02  0.377256173209E-02
  0.396266411147E-02  0.416228231022E-02  0.437188157767E-02  0.459194875929E-02  0.482299319577E-02
  0.506554765047E-02  0.532016926532E-02  0.558744054527E-02  0.586797037102E-02  0.616239503985E-02
  0.647137933415E-02  0.679561761707E-02  0.713583495471E-02  0.749278826385E-02  0.786726748420E-02
  0.826009677391E-02  0.867213572678E-02  0.910428060941E-02  0.955746561621E-02  0.100326641399E-01
  0.105308900550E-01  0.110531990108E-01  0.116006897308E-01  0.121745053149E-01  0.127758345392E-01
  0.134059131498E-01  0.140660251442E-01  0.147575040351E-01  0.154817340903E-01  0.162401515404E-01
  0.170342457482E-01  0.178655603303E-01  0.187356942212E-01  0.196463026713E-01  0.205990981659E-01
  0.215958512554E-01  0.226383912815E-01  0.237286069878E-01  0.248684469982E-01  0.260599201476E-01
  0.273050956476E-01  0.286061030688E-01  0.299651321188E-01  0.313844321969E-01  0.328663117001E-01
  0.344131370586E-01  0.360273314743E-01  0.377113733350E-01  0.394677942762E-01  0.412991768599E-01
  0.432081518381E-01  0.451973949687E-01  0.472696233466E-01  0.494275912151E-01  0.516740852171E-01
  0.540119190479E-01  0.564439274661E-01  0.589729596205E-01  0.616018716473E-01  0.643335184926E-01
  0.671707449115E-01  0.701163755974E-01  0.731732043902E-01  0.763439825144E-01  0.796314057975E-01
  0.830381008166E-01  0.865666099244E-01  0.902193751036E-01  0.939987206016E-01  0.979068342984E-01
  0.101945747761E+00  0.106117314943E+00  0.110423189488E+00  0.114864800601E+00  0.119443327458E+00
  0.124159672126E+00  0.129014430975E+00  0.134007864562E+00  0.139139866001E+00  0.144409927799E+00
  0.149817107195E+00  0.155359990018E+00  0.161036653102E+00  0.166844625327E+00  0.172780847340E+00
  0.178841630059E+00  0.185022612060E+00  0.191318715984E+00  0.197724104110E+00  0.204232133285E+00
  0.210835309403E+00  0.217525241677E+00  0.224292596964E+00  0.231127054431E+00  0.238017260883E+00
  0.244950787088E+00  0.251914085459E+00  0.258892449460E+00  0.265869975087E+00  0.272829524806E+00
  0.279752694264E+00  0.286619782119E+00  0.293409763313E+00  0.300100266145E+00  0.306667553572E+00
  0.313086509292E+00  0.319330629307E+00  0.325372019914E+00  0.331181403240E+00  0.336728131648E+00
  0.341980212458E+00  0.346904344474E+00  0.351465967732E+00  0.355629327765E+00  0.359357555421E+00
  0.362612762984E+00  0.365356157015E+00  0.367548168101E+00  0.369148597461E+00  0.370116780386E+00
  0.370411766487E+00  0.369992516799E+00  0.368818117866E+00  0.366848012879E+00  0.364042249827E+00
  0.360361746509E+00  0.355768572032E+00  0.350226244237E+00  0.343700042327E+00  0.336157333748E+00
  0.327567914169E+00  0.317904359218E+00  0.307142386361E+00  0.295261225062E+00  0.282243993105E+00
  0.268078076626E+00  0.252755511143E+00  0.236273360495E+00  0.218634090343E+00  0.199845932510E+00
  0.179923236166E+00  0.158886801552E+00  0.136764191729E+00  0.113590017558E+00  0.894061910456E-01
  0.642621420523E-01  0.382149933376E-01  0.113296889539E-01 -0.163209289590E-01 -0.446560998685E-01
 -0.735871858666E-01 -0.103017778768E+00 -0.132843877820E+00 -0.162954141887E+00 -0.193230218434E+00
 -0.223547148544E+00 -0.253773842229E+00 -0.283773611460E+00 -0.313404741511E+00 -0.342521077505E+00
 -0.370972607633E+00 -0.398606040510E+00 -0.425265402405E+00 -0.450792711811E+00 -0.475028806841E+00
 -0.497814383279E+00 -0.518991240368E+00 -0.538403658017E+00 -0.555899793098E+00 -0.571333006721E+00
 -0.584563089511E+00 -0.595457395525E+00 -0.603891909036E+00 -0.609752260466E+00 -0.612934693598E+00
 -0.613346973878E+00 -0.610909220881E+00 -0.605554646946E+00 -0.597230186395E+00 -0.585897004641E+00
 -0.571530881945E+00 -0.554122471754E+00 -0.533677437241E+00 -0.510216473050E+00 -0.483775220882E+00
 -0.454404089071E+00 -0.422167986636E+00 -0.387145982914E+00 -0.349430902952E+00 -0.309128869165E+00
 -0.266358798093E+00 -0.221251860536E+00 -0.173950912288E+00 -0.124609900848E+00 -0.733932531984E-01
 -0.204752479496E-01  0.339606250796E-01  0.897223155852E-01  0.146609871508E+00  0.204416103444E+00
  0.262927251853E+00  0.321923654030E+00  0.381180406960E+00  0.440468022690E+00  0.499553072910E+00
  0.558198821316E+00  0.616165843414E+00  0.673212636482E+00  0.729096223604E+00  0.783572756530E+00
  0.836398119524E+00  0.887328530727E+00  0.936121127389E+00  0.982534508413E+00  0.102632919641E+01
  0.106726797666E+01  0.110511608243E+01  0.113964122708E+01  0.117061353557E+01  0.119780548357E+01
  0.122099199164E+01  0.123995082501E+01  0.125446340389E+01  0.126431605625E+01  0.126930166353E+01
  0.126922160050E+01  0.126388785148E+01  0.125312519580E+01  0.123677341470E+01  0.121468946044E+01
  0.118674960773E+01  0.115285158425E+01  0.111291670260E+01  0.106689200977E+01  0.101475248003E+01
  0.956503251294E+00  0.892181924649E+00  0.821860935848E+00  0.745649992084E+00  0.000000000000E+00
  0.000000000000E+00  0.000000000000E+00  0.000000000000E+00  0.000000000000E+00  0.000000000000E+00
  0.000000000000E+00  0.000000000000E+00  0.000000000000E+00  0.000000000000E+00  0.000000000000E+00
  0.000000000000E+00  0.000000000000E+00  0.000000000000E+00  0.000000000000E+00  0.000000000000E+00
  0.000000000000E+00  0.000000000000E+00  0.000000000000E+00  0.000000000000E+00  0.000000000000E+00
  0.000000000000E+00  0.000000000000E+00  0.000000000000E+00  0.000000000000E+00  0.000000000000E+00
  0.000000000000E+00  0.000000000000E+00  0.000000000000E+00  0.000000000000E+00  0.000000000000E+00
  0.000000000000E+00  0.000000000000E+00  0.000000000000E+00  0.000000000000E+00  0.000000000000E+00
  0.000000000000E+00  0.000000000000E+00  0.000000000000E+00  0.000000000000E+00  0.000000000000E+00
  0.000000000000E+00  0.000000000000E+00
 End of Dataset
