Si1 Ge1                                 
   1.00000000000000     
    -0.0000000000000006    2.7988515187135952    2.7988515187135947
     2.7988515187135845   -0.0000000000000002    2.7988515187135952
     2.7988515187135845    2.7988515187135947    0.0000000000000010
   Si   Ge
     1     1
Direct
  0.0000000000000000  0.0000000000000000  0.0000000000000000
  0.7500000000000000  0.7500000000000000  0.7500000000000000
 
  0.00000000E+00  0.00000000E+00  0.00000000E+00
  0.00000000E+00  0.00000000E+00  0.00000000E+00
