generated by phonopy
   1.0
    -0.0000000000000024   11.1954060748543807   11.1954060748543789
    11.1954060748543380   -0.0000000000000008   11.1954060748543807
    11.1954060748543380   11.1954060748543789    0.0000000000000040
Si Ge
  64   64
Direct
  0.0000000000000000  0.0000000000000000  0.0000000000000000
  0.2500000000000000  0.0000000000000000  0.0000000000000000
  0.5000000000000000  0.0000000000000000  0.0000000000000000
  0.7500000000000001  0.0000000000000001  0.9999999999999999
  0.0000000000000000  0.2500000000000000  0.0000000000000000
  0.2500000000000000  0.2500000000000000  0.0000000000000000
  0.5000000000000001  0.2500000000000000  0.9999999999999999
  0.7500000000000001  0.2500000000000001  0.9999999999999998
  0.0000000000000000  0.5000000000000000  0.0000000000000000
  0.2500000000000001  0.4999999999999999  0.9999999999999999
  0.5000000000000000  0.4999999999999999  0.0000000000000000
  0.7500000000000002  0.5000000000000001  0.9999999999999998
  0.0000000000000001  0.7499999999999999  0.0000000000000000
  0.2500000000000001  0.7500000000000000  0.9999999999999999
  0.5000000000000000  0.7500000000000000  0.9999999999999999
  0.7500000000000002  0.7500000000000000  0.9999999999999999
  0.0000000000000000  0.0000000000000000  0.2499999999999999
  0.2500000000000000  0.0000000000000000  0.2499999999999999
  0.5000000000000001  0.0000000000000000  0.2499999999999999
  0.7500000000000001  0.0000000000000002  0.2499999999999997
  0.0000000000000001  0.2500000000000000  0.2500000000000000
  0.2500000000000001  0.2500000000000000  0.2499999999999999
  0.5000000000000001  0.2500000000000001  0.2499999999999998
  0.7500000000000001  0.2500000000000002  0.2499999999999998
  0.0000000000000001  0.5000000000000000  0.2499999999999999
  0.2500000000000001  0.5000000000000000  0.2499999999999998
  0.5000000000000001  0.5000000000000000  0.2500000000000000
  0.7500000000000002  0.5000000000000001  0.2499999999999996
  0.0000000000000001  0.7500000000000000  0.2499999999999999
  0.2500000000000001  0.7500000000000001  0.2499999999999999
  0.5000000000000001  0.7500000000000000  0.2499999999999999
  0.7500000000000001  0.7500000000000000  0.2499999999999998
  0.0000000000000001  0.0000000000000000  0.4999999999999999
  0.2500000000000002  0.0000000000000000  0.4999999999999999
  0.5000000000000000  0.0000000000000000  0.4999999999999999
  0.7500000000000001  0.0000000000000001  0.4999999999999998
  0.0000000000000001  0.2500000000000000  0.4999999999999999
  0.2500000000000001  0.2500000000000000  0.5000000000000000
  0.5000000000000001  0.2500000000000001  0.4999999999999998
  0.7500000000000002  0.2500000000000001  0.4999999999999998
  0.0000000000000001  0.4999999999999999  0.4999999999999999
  0.2500000000000002  0.4999999999999999  0.4999999999999998
  0.5000000000000001  0.4999999999999999  0.4999999999999999
  0.7500000000000002  0.5000000000000001  0.4999999999999997
  0.0000000000000001  0.7500000000000000  0.4999999999999999
  0.2500000000000002  0.7500000000000000  0.5000000000000000
  0.5000000000000001  0.7500000000000000  0.4999999999999998
  0.7500000000000003  0.7500000000000000  0.4999999999999997
  0.0000000000000002  0.0000000000000000  0.7500000000000000
  0.2500000000000001  0.0000000000000001  0.7499999999999999
  0.5000000000000001  0.0000000000000001  0.7499999999999999
  0.7500000000000003  0.0000000000000000  0.7499999999999998
  0.0000000000000001  0.2500000000000000  0.7499999999999998
  0.2500000000000001  0.2500000000000000  0.7499999999999999
  0.5000000000000002  0.2500000000000000  0.7499999999999998
  0.7500000000000003  0.2500000000000001  0.7499999999999997
  0.0000000000000001  0.5000000000000000  0.7499999999999998
  0.2500000000000002  0.4999999999999999  0.7499999999999998
  0.5000000000000001  0.4999999999999999  0.7500000000000000
  0.7500000000000002  0.5000000000000001  0.7499999999999999
  0.0000000000000002  0.7500000000000000  0.7499999999999998
  0.2500000000000002  0.7500000000000000  0.7499999999999997
  0.5000000000000001  0.7500000000000001  0.7499999999999998
  0.7500000000000002  0.7500000000000001  0.7499999999999999
  0.1881316044067171  0.1875000000000000  0.1875000000000000
  0.4375000000000001  0.1875000000000000  0.1874999999999999
  0.6875000000000000  0.1875000000000000  0.1874999999999999
  0.9375000000000000  0.1875000000000000  0.1875000000000000
  0.1875000000000001  0.4375000000000000  0.1874999999999999
  0.4375000000000001  0.4374999999999998  0.1874999999999999
  0.6875000000000001  0.4375000000000000  0.1874999999999999
  0.9375000000000001  0.4375000000000000  0.1874999999999999
  0.1875000000000000  0.6875000000000000  0.1875000000000000
  0.4375000000000001  0.6874999999999999  0.1875000000000000
  0.6875000000000001  0.6875000000000000  0.1874999999999998
  0.9375000000000000  0.6874999999999999  0.1874999999999999
  0.1875000000000000  0.9374999999999999  0.1875000000000000
  0.4375000000000001  0.9375000000000000  0.1874999999999999
  0.6875000000000001  0.9375000000000001  0.1874999999999998
  0.9375000000000001  0.9375000000000001  0.1875000000000000
  0.1875000000000001  0.1875000000000000  0.4375000000000000
  0.4375000000000001  0.1875000000000001  0.4374999999999999
  0.6875000000000001  0.1875000000000000  0.4374999999999998
  0.9375000000000001  0.1875000000000000  0.4374999999999998
  0.1875000000000001  0.4374999999999999  0.4374999999999998
  0.4375000000000001  0.4374999999999999  0.4374999999999998
  0.6875000000000002  0.4375000000000000  0.4374999999999998
  0.9375000000000001  0.4375000000000000  0.4374999999999998
  0.1875000000000002  0.6875000000000000  0.4374999999999999
  0.4375000000000002  0.6875000000000000  0.4374999999999998
  0.6875000000000002  0.6875000000000000  0.4374999999999997
  0.9375000000000000  0.6874999999999999  0.4374999999999999
  0.1875000000000001  0.9375000000000000  0.4374999999999998
  0.4375000000000003  0.9375000000000000  0.4374999999999997
  0.6875000000000002  0.9375000000000000  0.4374999999999998
  0.9375000000000001  0.9375000000000000  0.4374999999999998
  0.1875000000000002  0.1874999999999999  0.6874999999999999
  0.4375000000000002  0.1874999999999999  0.6874999999999998
  0.6875000000000001  0.1875000000000001  0.6874999999999998
  0.9375000000000001  0.1875000000000001  0.6874999999999996
  0.1875000000000002  0.4375000000000000  0.6874999999999998
  0.4375000000000002  0.4375000000000000  0.6875000000000000
  0.6875000000000002  0.4375000000000002  0.6874999999999997
  0.9375000000000002  0.4375000000000001  0.6874999999999998
  0.1875000000000003  0.6875000000000000  0.6874999999999997
  0.4375000000000002  0.6875000000000001  0.6874999999999997
  0.6875000000000003  0.6875000000000001  0.6874999999999997
  0.9375000000000001  0.6875000000000001  0.6874999999999998
  0.1875000000000000  0.9375000000000001  0.6874999999999999
  0.4375000000000003  0.9375000000000000  0.6874999999999997
  0.6875000000000003  0.9375000000000001  0.6874999999999997
  0.9375000000000002  0.9375000000000001  0.6874999999999997
  0.1875000000000001  0.1875000000000000  0.9374999999999998
  0.4375000000000002  0.1875000000000000  0.9374999999999998
  0.6875000000000001  0.1875000000000001  0.9374999999999998
  0.9375000000000002  0.1874999999999999  0.9374999999999998
  0.1875000000000002  0.4375000000000000  0.9374999999999998
  0.4375000000000003  0.4374999999999999  0.9374999999999998
  0.6875000000000002  0.4375000000000001  0.9374999999999997
  0.9375000000000002  0.4375000000000000  0.9374999999999998
  0.1875000000000003  0.6875000000000000  0.9374999999999997
  0.4375000000000003  0.6874999999999999  0.9374999999999997
  0.6875000000000002  0.6875000000000001  0.9374999999999997
  0.9375000000000002  0.6874999999999999  0.9375000000000000
  0.1875000000000002  0.9374999999999999  0.9374999999999999
  0.4375000000000003  0.9374999999999999  0.9374999999999997
  0.6875000000000003  0.9375000000000000  0.9374999999999997
  0.9375000000000003  0.9374999999999999  0.9374999999999997
