 vasp.6.4.3 19Mar24 (build Jul 11 2024 12:30:41) complex                        
  
 executed on             LinuxIFC date 2025.12.02  21:22:17
 running  256 mpi-ranks, on   16 nodes
 distrk:  each k-point on  256 cores,    1 groups
 distr:  one band on NCORE=  16 cores,   16 groups


--------------------------------------------------------------------------------------------------------


 INCAR:
   SYSTEM = SiGe
   ISTART = 0
   ICHARG = 2
   PREC = Accurate
   EDIFF = 1E-8
   EDIFFG = -0.00002
   ENCUT = 600
   ISMEAR = 0
   SIGMA = 0.01
   NELM = 200
   NCORE = 16

 POTCAR:    PAW_PBE Si 05Jan2001                  
 POTCAR:    PAW_PBE Ge_d 03Jul2007                
 POTCAR:    PAW_PBE Si 05Jan2001                  
   VRHFIN =Si: s2p2                                                                                 
   LEXCH  = PE                                                                                      
   EATOM  =   103.0669 eV,    7.5752 Ry                                                             
                                                                                                    
   TITEL  = PAW_PBE Si 05Jan2001                                                                    
   LULTRA =        F    use ultrasoft PP ?                                                          
   IUNSCR =        1    unscreen: 0-lin 1-nonlin 2-no                                               
   RPACOR =    1.500    partial core radius                                                         
   POMASS =   28.085; ZVAL   =    4.000    mass and valenz                                          
   RCORE  =    1.900    outmost cutoff radius                                                       
   RWIGS  =    2.480; RWIGS  =    1.312    wigner-seitz radius (au A)                               
   ENMAX  =  245.345; ENMIN  =  184.009 eV                                                          
   ICORE  =        2    local potential                                                             
   LCOR   =        T    correct aug charges                                                         
   LPAW   =        T    paw PP                                                                      
   EAUG   =  322.069                                                                                
   DEXC   =    0.000                                                                                
   RMAX   =    1.950    core radius for proj-oper                                                   
   RAUG   =    1.300    factor for augmentation sphere                                              
   RDEP   =    1.993    radius for radial grids                                                     
   RDEPT  =    1.837    core radius for aug-charge                                                  
                                                                                                    
   Atomic configuration                                                                             
    6 entries                                                                                       
     n  l   j            E        occ.                                                              
     1  0  0.50     -1785.8828   2.0000                                                             
     2  0  0.50      -139.4969   2.0000                                                             
     2  1  1.50       -95.5546   6.0000                                                             
     3  0  0.50       -10.8127   2.0000                                                             
     3  1  0.50        -4.0811   2.0000                                                             
     3  2  1.50        -4.0817   0.0000                                                             
   Description                                                                                      
     l       E           TYP  RCUT    TYP  RCUT                                                     
     0    -10.8127223     23  1.900                                                                 
     0     -7.6451159     23  1.900                                                                 
     1     -4.0811372     23  1.900                                                                 
     1      2.4879257     23  1.900                                                                 
     2     -4.0817478      7  1.900                                                                 
  local pseudopotential read in
  partial core-charges read in
  partial kinetic energy density read in
  atomic valenz-charges read in
  non local Contribution for L=           0  read in
    real space projection operators read in
  non local Contribution for L=           0  read in
    real space projection operators read in
  non local Contribution for L=           1  read in
    real space projection operators read in
  non local Contribution for L=           1  read in
    real space projection operators read in
    PAW grid and wavefunctions read in
 
   number of l-projection  operators is LMAX  =           4
   number of lm-projection operators is LMMAX =           8
 
 POTCAR:    PAW_PBE Ge_d 03Jul2007                
   SHA256 =  944b26c40d2d7c4f4eb1ff3a2e8dbfdd7129146276cd341854bfd5c0e57780ed Ge_d/POTCAR           
   COPYR  = (c) Copyright 03Jul2007 Georg Kresse                                                    
   COPYR  = This file is part of the software VASP. Any use, copying, and all other rights are regul
   COPYR  = If you do not have a valid VASP license, you may not use, copy or distribute this file. 
   VRHFIN =Ge: 3d4s4p                                                                               
   LEXCH  = PE                                                                                      
   EATOM  =  2596.2402 eV,  190.8183 Ry                                                             
                                                                                                    
   TITEL  = PAW_PBE Ge_d 03Jul2007                                                                  
   LULTRA =        F    use ultrasoft PP ?                                                          
   IUNSCR =        1    unscreen: 0-lin 1-nonlin 2-no                                               
   RPACOR =    2.000    partial core radius                                                         
   POMASS =   72.610; ZVAL   =   14.000    mass and valenz                                          
   RCORE  =    2.300    outmost cutoff radius                                                       
   RWIGS  =    2.300; RWIGS  =    1.217    wigner-seitz radius (au A)                               
   ENMAX  =  310.294; ENMIN  =  232.720 eV                                                          
   ICORE  =        3    local potential                                                             
   LCOR   =        T    correct aug charges                                                         
   LPAW   =        T    paw PP                                                                      
   EAUG   =  531.356                                                                                
   DEXC   =    0.000                                                                                
   RMAX   =    2.342    core radius for proj-oper                                                   
   RAUG   =    1.300    factor for augmentation sphere                                              
   RDEP   =    2.318    radius for radial grids                                                     
   RDEPT  =    1.783    core radius for aug-charge                                                  
                                                                                                    
   Atomic configuration                                                                             
    9 entries                                                                                       
     n  l   j            E        occ.                                                              
     1  0  0.50    -10959.8463   2.0000                                                             
     2  0  0.50     -1371.6056   2.0000                                                             
     2  1  1.50     -1198.4791   6.0000                                                             
     3  0  0.50      -168.4733   2.0000                                                             
     3  1  1.50      -115.6019   6.0000                                                             
     3  2  2.50       -29.3106  10.0000                                                             
     4  0  0.50       -11.7309   2.0000                                                             
     4  1  0.50        -3.8952   2.0000                                                             
     4  3  2.50        -4.0817   0.0000                                                             
   Description                                                                                      
     l       E           TYP  RCUT    TYP  RCUT                                                     
     2    -29.3105938     23  2.200                                                                 
     2    -13.6058260     23  2.200                                                                 
     0    -11.7309493     23  2.300                                                                 
     0     -7.4578696     23  2.300                                                                 
     1     -3.8952261     23  2.300                                                                 
     1      6.1178114     23  2.300                                                                 
     3     -1.3605826     23  2.300                                                                 
  local pseudopotential read in
  partial core-charges read in
  partial kinetic energy density read in
  atomic valenz-charges read in
  non local Contribution for L=           2  read in
    real space projection operators read in
  non local Contribution for L=           2  read in
    real space projection operators read in
  non local Contribution for L=           0  read in
    real space projection operators read in
  non local Contribution for L=           0  read in
    real space projection operators read in
  non local Contribution for L=           1  read in
    real space projection operators read in
  non local Contribution for L=           1  read in
    real space projection operators read in
    PAW grid and wavefunctions read in
 
   number of l-projection  operators is LMAX  =           6
   number of lm-projection operators is LMMAX =          18
 
 -----------------------------------------------------------------------------
|                                                                             |
|               ----> ADVICE to this user running VASP <----                  |
|                                                                             |
|     You have a (more or less) 'large supercell' and for larger cells it     |
|     might be more efficient to use real-space projection operators.         |
|     Therefore, try LREAL= Auto in the INCAR file.                           |
|     Mind: For very accurate calculation, you might also keep the            |
|     reciprocal projection scheme (i.e. LREAL=.FALSE.).                      |
|                                                                             |
 -----------------------------------------------------------------------------

  PAW_PBE Si 05Jan2001                  :
 energy of atom  1       EATOM= -103.0669
 kinetic energy error for atom=    0.0003 (will be added to EATOM!!)
  PAW_PBE Ge_d 03Jul2007                :
 energy of atom  2       EATOM=-2596.2402
 kinetic energy error for atom=    0.0024 (will be added to EATOM!!)
 
 
 POSCAR: generated by phonopy
  positions in direct lattice
  No initial velocities read in


 exchange-correlation table for PE
   RHO(1)=    0.500       N(1)  =     2000
   RHO(2)=  100.500       N(2)  =     4000
 


--------------------------------------------------------------------------------------------------------


 ion  position               nearest neighbor table
   1  0.000  0.000  0.000-  80 2.42 128 2.42 125 2.42 116 2.42
   2  0.250  0.000  0.000-  77 2.42 125 2.42 113 2.42 126 2.42
   3  0.500  0.000  0.000-  78 2.42 126 2.42 114 2.42 127 2.42
   4  0.750  0.000  0.000-  79 2.42 127 2.42 115 2.42 128 2.42
   5  0.000  0.250  0.000-  68 2.42 116 2.42 113 2.42 120 2.42
   6  0.250  0.250  0.000- 113 2.42 114 2.42 117 2.42  65 2.42
   7  0.500  0.250  0.000-  66 2.42 114 2.42 115 2.42 118 2.42
   8  0.750  0.250  0.000-  67 2.42 115 2.42 116 2.42 119 2.42
   9  0.000  0.500  0.000-  72 2.42 120 2.42 117 2.42 124 2.42
  10  0.250  0.500  0.000-  69 2.42 117 2.42 118 2.42 121 2.42
  11  0.500  0.500  0.000-  70 2.42 118 2.42 119 2.42 122 2.42
  12  0.750  0.500  0.000-  71 2.42 119 2.42 120 2.42 123 2.42
  13  0.000  0.750  0.000-  76 2.42 124 2.42 121 2.42 128 2.42
  14  0.250  0.750  0.000-  73 2.42 121 2.42 122 2.42 125 2.42
  15  0.500  0.750  0.000-  74 2.42 122 2.42 123 2.42 126 2.42
  16  0.750  0.750  0.000-  75 2.42 123 2.42 124 2.42 127 2.42
  17  0.000  0.000  0.250-  80 2.42  96 2.42  68 2.42  77 2.42
  18  0.250  0.000  0.250-  77 2.42  93 2.42  78 2.42  65 2.42
  19  0.500  0.000  0.250-  78 2.42  94 2.42  79 2.42  66 2.42
  20  0.750  0.000  0.250-  79 2.42  95 2.42  80 2.42  67 2.42
  21  0.000  0.250  0.250-  68 2.42  84 2.42  72 2.42  65 2.43
  22  0.250  0.250  0.250-  65 2.42  81 2.42  69 2.42  66 2.42
  23  0.500  0.250  0.250-  66 2.42  82 2.42  70 2.42  67 2.42
  24  0.750  0.250  0.250-  67 2.42  83 2.42  71 2.42  68 2.42
  25  0.000  0.500  0.250-  72 2.42  88 2.42  76 2.42  69 2.42
  26  0.250  0.500  0.250-  69 2.42  85 2.42  73 2.42  70 2.42
  27  0.500  0.500  0.250-  70 2.42  86 2.42  74 2.42  71 2.42
  28  0.750  0.500  0.250-  71 2.42  87 2.42  75 2.42  72 2.42
  29  0.000  0.750  0.250-  76 2.42  92 2.42  80 2.42  73 2.42
  30  0.250  0.750  0.250-  73 2.42  89 2.42  77 2.42  74 2.42
  31  0.500  0.750  0.250-  74 2.42  90 2.42  78 2.42  75 2.42
  32  0.750  0.750  0.250-  75 2.42  91 2.42  79 2.42  76 2.42
  33  0.000  0.000  0.500-  96 2.42 112 2.42  84 2.42  93 2.42
  34  0.250  0.000  0.500-  93 2.42 109 2.42  94 2.42  81 2.42
  35  0.500  0.000  0.500-  94 2.42 110 2.42  95 2.42  82 2.42
  36  0.750  0.000  0.500-  95 2.42 111 2.42  96 2.42  83 2.42
  37  0.000  0.250  0.500-  84 2.42 100 2.42  88 2.42  81 2.42
  38  0.250  0.250  0.500-  81 2.42  97 2.42  85 2.42  82 2.42
  39  0.500  0.250  0.500-  82 2.42  98 2.42  86 2.42  83 2.42
  40  0.750  0.250  0.500-  83 2.42  99 2.42  87 2.42  84 2.42
  41  0.000  0.500  0.500-  88 2.42 104 2.42  92 2.42  85 2.42
  42  0.250  0.500  0.500-  85 2.42 101 2.42  89 2.42  86 2.42
  43  0.500  0.500  0.500-  86 2.42 102 2.42  90 2.42  87 2.42
  44  0.750  0.500  0.500-  87 2.42 103 2.42  91 2.42  88 2.42
  45  0.000  0.750  0.500-  92 2.42 108 2.42  96 2.42  89 2.42
  46  0.250  0.750  0.500-  89 2.42 105 2.42  93 2.42  90 2.42
  47  0.500  0.750  0.500-  90 2.42 106 2.42  94 2.42  91 2.42
  48  0.750  0.750  0.500-  91 2.42 107 2.42  95 2.42  92 2.42
  49  0.000  0.000  0.750- 112 2.42 128 2.42 100 2.42 109 2.42
  50  0.250  0.000  0.750- 109 2.42 125 2.42 110 2.42  97 2.42
  51  0.500  0.000  0.750- 110 2.42 126 2.42 111 2.42  98 2.42
  52  0.750  0.000  0.750- 111 2.42 127 2.42 112 2.42  99 2.42
  53  0.000  0.250  0.750- 100 2.42 116 2.42 104 2.42  97 2.42
  54  0.250  0.250  0.750-  97 2.42 113 2.42 101 2.42  98 2.42
  55  0.500  0.250  0.750-  98 2.42 114 2.42 102 2.42  99 2.42
  56  0.750  0.250  0.750-  99 2.42 115 2.42 103 2.42 100 2.42
  57  0.000  0.500  0.750- 104 2.42 120 2.42 108 2.42 101 2.42
  58  0.250  0.500  0.750- 101 2.42 117 2.42 105 2.42 102 2.42
  59  0.500  0.500  0.750- 102 2.42 118 2.42 106 2.42 103 2.42
  60  0.750  0.500  0.750- 103 2.42 119 2.42 107 2.42 104 2.42
  61  0.000  0.750  0.750- 108 2.42 124 2.42 112 2.42 105 2.42
  62  0.250  0.750  0.750- 105 2.42 121 2.42 109 2.42 106 2.42
  63  0.500  0.750  0.750- 106 2.42 122 2.42 110 2.42 107 2.42
  64  0.750  0.750  0.750- 107 2.42 123 2.42 111 2.42 108 2.42
  65  0.188  0.188  0.188-  22 2.42   6 2.42  18 2.42  21 2.43
  66  0.438  0.188  0.188-   7 2.42  23 2.42  22 2.42  19 2.42
  67  0.688  0.188  0.188-   8 2.42  24 2.42  23 2.42  20 2.42
  68  0.938  0.188  0.188-   5 2.42  21 2.42  17 2.42  24 2.42
  69  0.188  0.438  0.188-  10 2.42  26 2.42  25 2.42  22 2.42
  70  0.438  0.438  0.188-  11 2.42  27 2.42  26 2.42  23 2.42
  71  0.688  0.438  0.188-  12 2.42  28 2.42  27 2.42  24 2.42
  72  0.938  0.438  0.188-   9 2.42  25 2.42  21 2.42  28 2.42
  73  0.188  0.688  0.188-  14 2.42  30 2.42  29 2.42  26 2.42
  74  0.438  0.688  0.188-  15 2.42  31 2.42  30 2.42  27 2.42
  75  0.688  0.688  0.188-  16 2.42  32 2.42  31 2.42  28 2.42
  76  0.938  0.688  0.188-  13 2.42  29 2.42  25 2.42  32 2.42
  77  0.188  0.938  0.188-   2 2.42  18 2.42  17 2.42  30 2.42
  78  0.438  0.938  0.188-   3 2.42  19 2.42  18 2.42  31 2.42
  79  0.688  0.938  0.188-   4 2.42  20 2.42  19 2.42  32 2.42
  80  0.938  0.938  0.188-   1 2.42  17 2.42  20 2.42  29 2.42
  81  0.188  0.188  0.438-  22 2.42  38 2.42  37 2.42  34 2.42
  82  0.438  0.188  0.438-  23 2.42  39 2.42  38 2.42  35 2.42
  83  0.688  0.188  0.438-  24 2.42  40 2.42  39 2.42  36 2.42
  84  0.938  0.188  0.438-  21 2.42  37 2.42  33 2.42  40 2.42
  85  0.188  0.438  0.438-  26 2.42  42 2.42  41 2.42  38 2.42
  86  0.438  0.438  0.438-  27 2.42  43 2.42  42 2.42  39 2.42
  87  0.688  0.438  0.438-  28 2.42  44 2.42  43 2.42  40 2.42
  88  0.938  0.438  0.438-  25 2.42  41 2.42  37 2.42  44 2.42
  89  0.188  0.688  0.438-  30 2.42  46 2.42  45 2.42  42 2.42
  90  0.438  0.688  0.438-  31 2.42  47 2.42  46 2.42  43 2.42
  91  0.688  0.688  0.438-  32 2.42  48 2.42  47 2.42  44 2.42
  92  0.938  0.688  0.438-  29 2.42  45 2.42  41 2.42  48 2.42
  93  0.188  0.938  0.438-  18 2.42  34 2.42  33 2.42  46 2.42
  94  0.438  0.938  0.438-  19 2.42  35 2.42  34 2.42  47 2.42
  95  0.688  0.938  0.438-  20 2.42  36 2.42  35 2.42  48 2.42
  96  0.938  0.938  0.438-  17 2.42  33 2.42  36 2.42  45 2.42
  97  0.188  0.188  0.688-  38 2.42  54 2.42  53 2.42  50 2.42
  98  0.438  0.188  0.688-  39 2.42  55 2.42  54 2.42  51 2.42
  99  0.688  0.188  0.688-  40 2.42  56 2.42  55 2.42  52 2.42
 100  0.938  0.188  0.688-  37 2.42  53 2.42  49 2.42  56 2.42
 101  0.188  0.438  0.688-  42 2.42  58 2.42  57 2.42  54 2.42
 102  0.438  0.438  0.688-  43 2.42  59 2.42  58 2.42  55 2.42
 103  0.688  0.438  0.688-  44 2.42  60 2.42  59 2.42  56 2.42
 104  0.938  0.438  0.688-  41 2.42  57 2.42  53 2.42  60 2.42
 105  0.188  0.688  0.688-  46 2.42  62 2.42  61 2.42  58 2.42
 106  0.438  0.688  0.688-  47 2.42  63 2.42  62 2.42  59 2.42
 107  0.688  0.688  0.688-  48 2.42  64 2.42  63 2.42  60 2.42
 108  0.938  0.688  0.688-  45 2.42  61 2.42  57 2.42  64 2.42
 109  0.188  0.938  0.688-  34 2.42  50 2.42  49 2.42  62 2.42
 110  0.438  0.938  0.688-  35 2.42  51 2.42  50 2.42  63 2.42
 111  0.688  0.938  0.688-  36 2.42  52 2.42  51 2.42  64 2.42
 112  0.938  0.938  0.688-  33 2.42  49 2.42  52 2.42  61 2.42
 113  0.188  0.188  0.938-   6 2.42  54 2.42   2 2.42   5 2.42
 114  0.438  0.188  0.938-   7 2.42  55 2.42   3 2.42   6 2.42
 115  0.688  0.188  0.938-   8 2.42  56 2.42   4 2.42   7 2.42
 116  0.938  0.188  0.938-   5 2.42  53 2.42   8 2.42   1 2.42
 117  0.188  0.438  0.938-  10 2.42  58 2.42   6 2.42   9 2.42
 118  0.438  0.438  0.938-  11 2.42  59 2.42   7 2.42  10 2.42
 119  0.688  0.438  0.938-  12 2.42  60 2.42   8 2.42  11 2.42
 120  0.938  0.438  0.938-   9 2.42  57 2.42  12 2.42   5 2.42
 121  0.188  0.688  0.938-  14 2.42  62 2.42  10 2.42  13 2.42
 122  0.438  0.688  0.938-  15 2.42  63 2.42  11 2.42  14 2.42
 123  0.688  0.688  0.938-  16 2.42  64 2.42  12 2.42  15 2.42
 124  0.938  0.688  0.938-  13 2.42  61 2.42  16 2.42   9 2.42
 125  0.188  0.938  0.938-   2 2.42  50 2.42  14 2.42   1 2.42
 126  0.438  0.938  0.938-   3 2.42  51 2.42  15 2.42   2 2.42
 127  0.688  0.938  0.938-   4 2.42  52 2.42  16 2.42   3 2.42
 128  0.938  0.938  0.938-   1 2.42  49 2.42  13 2.42   4 2.42
 
  LATTYP: Found a face centered cubic cell.
 ALAT       =    22.3908121497
  
  Lattice vectors:
  
 A1 = (  -0.0000000000,  11.1954060749,  11.1954060749)
 A2 = (  11.1954060749,  -0.0000000000,  11.1954060749)
 A3 = (  11.1954060749,  11.1954060749,   0.0000000000)


Analysis of symmetry for initial positions (statically):
=====================================================================
 Subroutine PRICEL returns:
 Original cell was already a primitive cell.
 

 Routine SETGRP: Setting up the symmetry group for a 
 face centered cubic supercell.


 Subroutine GETGRP returns: Found  2 space group operations
 (whereof  2 operations were pure point group operations)
 out of a pool of 48 trial point group operations.


The static configuration has the point symmetry C_1h.


Analysis of symmetry for dynamics (positions and initial velocities):
=====================================================================
 Subroutine PRICEL returns:
 Original cell was already a primitive cell.
 

 Routine SETGRP: Setting up the symmetry group for a 
 face centered cubic supercell.


 Subroutine GETGRP returns: Found  2 space group operations
 (whereof  2 operations were pure point group operations)
 out of a pool of 48 trial point group operations.


The dynamic configuration has the point symmetry C_1h.


 Subroutine INISYM returns: Found  2 space group operations
 (whereof  2 operations are pure point group operations),
 and found     1 'primitive' translations


----------------------------------------------------------------------------------------

                                     Primitive cell                                     

  volume of cell :    2806.3998

  direct lattice vectors                    reciprocal lattice vectors
    -0.000000000 11.195406075 11.195406075    -0.044661176  0.044661176  0.044661176
    11.195406075 -0.000000000 11.195406075     0.044661176 -0.044661176  0.044661176
    11.195406075 11.195406075  0.000000000     0.044661176  0.044661176 -0.044661176

  length of vectors
    15.832695107 15.832695107 15.832695107     0.077355426  0.077355426  0.077355426

  position of ions in fractional coordinates (direct lattice)
     0.000000000  0.000000000  0.000000000
     0.250000000  0.000000000  1.000000000
     0.500000000  0.000000000  1.000000000
     0.750000000  0.000000000  1.000000000
     1.000000000  0.250000000  0.000000000
     0.250000000  0.250000000  1.000000000
     0.500000000  0.250000000  1.000000000
     0.750000000  0.250000000  1.000000000
     1.000000000  0.500000000  0.000000000
     0.250000000  0.500000000  0.000000000
     0.500000000  0.500000000  1.000000000
     0.750000000  0.500000000  1.000000000
     1.000000000  0.750000000  0.000000000
     0.250000000  0.750000000  0.000000000
     0.500000000  0.750000000  1.000000000
     0.750000000  0.750000000  1.000000000
     0.000000000  0.000000000  0.250000000
     0.250000000  0.000000000  0.250000000
     0.500000000  0.000000000  0.250000000
     0.750000000  0.000000000  0.250000000
     0.000000000  0.250000000  0.250000000
     0.250000000  0.250000000  0.250000000
     0.500000000  0.250000000  0.250000000
     0.750000000  0.250000000  0.250000000
     0.000000000  0.500000000  0.250000000
     0.250000000  0.500000000  0.250000000
     0.500000000  0.500000000  0.250000000
     0.750000000  0.500000000  0.250000000
     0.000000000  0.750000000  0.250000000
     0.250000000  0.750000000  0.250000000
     0.500000000  0.750000000  0.250000000
     0.750000000  0.750000000  0.250000000
     0.000000000  0.000000000  0.500000000
     0.250000000  0.000000000  0.500000000
     0.500000000  0.000000000  0.500000000
     0.750000000  0.000000000  0.500000000
     0.000000000  0.250000000  0.500000000
     0.250000000  0.250000000  0.500000000
     0.500000000  0.250000000  0.500000000
     0.750000000  0.250000000  0.500000000
     0.000000000  0.500000000  0.500000000
     0.250000000  0.500000000  0.500000000
     0.500000000  0.500000000  0.500000000
     0.750000000  0.500000000  0.500000000
     0.000000000  0.750000000  0.500000000
     0.250000000  0.750000000  0.500000000
     0.500000000  0.750000000  0.500000000
     0.750000000  0.750000000  0.500000000
     0.000000000  0.000000000  0.750000000
     0.250000000  0.000000000  0.750000000
     0.500000000  0.000000000  0.750000000
     0.750000000  0.000000000  0.750000000
     0.000000000  0.250000000  0.750000000
     0.250000000  0.250000000  0.750000000
     0.500000000  0.250000000  0.750000000
     0.750000000  0.250000000  0.750000000
     0.000000000  0.500000000  0.750000000
     0.250000000  0.500000000  0.750000000
     0.500000000  0.500000000  0.750000000
     0.750000000  0.500000000  0.750000000
     0.000000000  0.750000000  0.750000000
     0.250000000  0.750000000  0.750000000
     0.500000000  0.750000000  0.750000000
     0.750000000  0.750000000  0.750000000
     0.188131604  0.187500000  0.187500000
     0.437500000  0.187500000  0.187500000
     0.687500000  0.187500000  0.187500000
     0.937500000  0.187500000  0.187500000
     0.187500000  0.437500000  0.187500000
     0.437500000  0.437500000  0.187500000
     0.687500000  0.437500000  0.187500000
     0.937500000  0.437500000  0.187500000
     0.187500000  0.687500000  0.187500000
     0.437500000  0.687500000  0.187500000
     0.687500000  0.687500000  0.187500000
     0.937500000  0.687500000  0.187500000
     0.187500000  0.937500000  0.187500000
     0.437500000  0.937500000  0.187500000
     0.687500000  0.937500000  0.187500000
     0.937500000  0.937500000  0.187500000
     0.187500000  0.187500000  0.437500000
     0.437500000  0.187500000  0.437500000
     0.687500000  0.187500000  0.437500000
     0.937500000  0.187500000  0.437500000
     0.187500000  0.437500000  0.437500000
     0.437500000  0.437500000  0.437500000
     0.687500000  0.437500000  0.437500000
     0.937500000  0.437500000  0.437500000
     0.187500000  0.687500000  0.437500000
     0.437500000  0.687500000  0.437500000
     0.687500000  0.687500000  0.437500000
     0.937500000  0.687500000  0.437500000
     0.187500000  0.937500000  0.437500000
     0.437500000  0.937500000  0.437500000
     0.687500000  0.937500000  0.437500000
     0.937500000  0.937500000  0.437500000
     0.187500000  0.187500000  0.687500000
     0.437500000  0.187500000  0.687500000
     0.687500000  0.187500000  0.687500000
     0.937500000  0.187500000  0.687500000
     0.187500000  0.437500000  0.687500000
     0.437500000  0.437500000  0.687500000
     0.687500000  0.437500000  0.687500000
     0.937500000  0.437500000  0.687500000
     0.187500000  0.687500000  0.687500000
     0.437500000  0.687500000  0.687500000
     0.687500000  0.687500000  0.687500000
     0.937500000  0.687500000  0.687500000
     0.187500000  0.937500000  0.687500000
     0.437500000  0.937500000  0.687500000
     0.687500000  0.937500000  0.687500000
     0.937500000  0.937500000  0.687500000
     0.187500000  0.187500000  0.937500000
     0.437500000  0.187500000  0.937500000
     0.687500000  0.187500000  0.937500000
     0.937500000  0.187500000  0.937500000
     0.187500000  0.437500000  0.937500000
     0.437500000  0.437500000  0.937500000
     0.687500000  0.437500000  0.937500000
     0.937500000  0.437500000  0.937500000
     0.187500000  0.687500000  0.937500000
     0.437500000  0.687500000  0.937500000
     0.687500000  0.687500000  0.937500000
     0.937500000  0.687500000  0.937500000
     0.187500000  0.937500000  0.937500000
     0.437500000  0.937500000  0.937500000
     0.687500000  0.937500000  0.937500000
     0.937500000  0.937500000  0.937500000

  ion indices of the primitive-cell ions
   primitive index   ion index
                 1           1
                 2           2
                 3           3
                 4           4
                 5           5
                 6           6
                 7           7
                 8           8
                 9           9
                10          10
                11          11
                12          12
                13          13
                14          14
                15          15
                16          16
                17          17
                18          18
                19          19
                20          20
                21          21
                22          22
                23          23
                24          24
                25          25
                26          26
                27          27
                28          28
                29          29
                30          30
                31          31
                32          32
                33          33
                34          34
                35          35
                36          36
                37          37
                38          38
                39          39
                40          40
                41          41
                42          42
                43          43
                44          44
                45          45
                46          46
                47          47
                48          48
                49          49
                50          50
                51          51
                52          52
                53          53
                54          54
                55          55
                56          56
                57          57
                58          58
                59          59
                60          60
                61          61
                62          62
                63          63
                64          64
                65          65
                66          66
                67          67
                68          68
                69          69
                70          70
                71          71
                72          72
                73          73
                74          74
                75          75
                76          76
                77          77
                78          78
                79          79
                80          80
                81          81
                82          82
                83          83
                84          84
                85          85
                86          86
                87          87
                88          88
                89          89
                90          90
                91          91
                92          92
                93          93
                94          94
                95          95
                96          96
                97          97
                98          98
                99          99
               100         100
               101         101
               102         102
               103         103
               104         104
               105         105
               106         106
               107         107
               108         108
               109         109
               110         110
               111         111
               112         112
               113         113
               114         114
               115         115
               116         116
               117         117
               118         118
               119         119
               120         120
               121         121
               122         122
               123         123
               124         124
               125         125
               126         126
               127         127
               128         128

----------------------------------------------------------------------------------------

 
 
 KPOINTS: Automatic kpoint scheme                 

Automatic generation of k-mesh.
 Grid dimensions read from file:
 generate k-points for:    3    3    3

 Generating k-lattice:

  Cartesian coordinates                     Fractional coordinates (reciprocal lattice)
    -0.014887059  0.014887059  0.014887059     0.333333333  0.000000000 -0.000000000
     0.014887059 -0.014887059  0.014887059     0.000000000  0.333333333  0.000000000
     0.014887059  0.014887059 -0.014887059    -0.000000000  0.000000000  0.333333333

  Length of vectors
     0.025785142  0.025785142  0.025785142

  Shift w.r.t. Gamma in fractional coordinates (k-lattice)
     0.000000000  0.000000000  0.000000000

 
 Subroutine IBZKPT returns following result:
 ===========================================
 
 Found     10 irreducible k-points:
 
 Following reciprocal coordinates:
            Coordinates               Weight
  0.000000  0.000000  0.000000      1.000000
  0.333333  0.000000  0.000000      2.000000
  0.000000  0.333333  0.000000      4.000000
  0.333333  0.333333  0.333333      2.000000
  0.333333  0.333333  0.000000      4.000000
  0.000000  0.333333  0.333333      2.000000
 -0.333333  0.333333  0.000000      4.000000
  0.000000 -0.333333  0.333333      2.000000
  0.333333  0.333333 -0.333333      4.000000
  0.333333 -0.333333 -0.333333      2.000000
 
 Following cartesian coordinates:
            Coordinates               Weight
  0.000000  0.000000  0.000000      1.000000
 -0.014887  0.014887  0.014887      2.000000
  0.014887 -0.014887  0.014887      4.000000
  0.014887  0.014887  0.014887      2.000000
  0.000000  0.000000  0.029774      4.000000
  0.029774  0.000000  0.000000      2.000000
  0.029774 -0.029774  0.000000      4.000000
  0.000000  0.029774 -0.029774      2.000000
 -0.014887 -0.014887  0.044661      4.000000
 -0.044661  0.014887  0.014887      2.000000
 


--------------------------------------------------------------------------------------------------------




 Dimension of arrays:
   k-points           NKPTS =     10   k-points in BZ     NKDIM =     10   number of bands    NBANDS=    704
   number of dos      NEDOS =    301   number of ions     NIONS =    128
   non local maximal  LDIM  =      6   non local SUM 2l+1 LMDIM =     18
   total plane-waves  NPLWV = ******
   max r-space proj   IRMAX =      1   max aug-charges    IRDMAX=  24169
   dimension x,y,z NGX =   126 NGY =  126 NGZ =  126
   dimension x,y,z NGXF=   252 NGYF=  252 NGZF=  252
   support grid    NGXF=   252 NGYF=  252 NGZF=  252
   ions per type =              64  64
   NGX,Y,Z   is equivalent  to a cutoff of  13.23, 13.23, 13.23 a.u.
   NGXF,Y,Z  is equivalent  to a cutoff of  26.46, 26.46, 26.46 a.u.

 SYSTEM =  SiGe                                    
 POSCAR =  generated by phonopy                    

 Startparameter for this run:
   NWRITE =      2    write-flag & timer
   PREC   = accura    normal or accurate (medium, high low for compatibility)
   ISTART =      0    job   : 0-new  1-cont  2-samecut
   ICHARG =      2    charge: 1-file 2-atom 10-const
   ISPIN  =      1    spin polarized calculation?
   LNONCOLLINEAR =      F non collinear calculations
   LSORBIT =      F    spin-orbit coupling
   INIWAV =      1    electr: 0-lowe 1-rand  2-diag
   LASPH  =      F    aspherical Exc in radial PAW
 Electronic Relaxation 1
   ENCUT  =  600.0 eV  44.10 Ry    6.64 a.u.  31.62 31.62 31.62*2*pi/ulx,y,z
   ENINI  =  600.0     initial cutoff
   ENAUG  =  531.4 eV  augmentation charge cutoff
   NELM   =    200;   NELMIN=  2; NELMDL= -5     # of ELM steps 
   EDIFF  = 0.1E-07   stopping-criterion for ELM
   LREAL  =      F    real-space projection
   NLSPLINE    = F    spline interpolate recip. space projectors
   LCOMPAT=      F    compatible to vasp.4.4
   GGA_COMPAT  = T    GGA compatible to vasp.4.4-vasp.4.6
   LMAXPAW     = -100 max onsite density
   LMAXMIX     =    2 max onsite mixed and CHGCAR
   VOSKOWN=      0    Vosko Wilk Nusair interpolation
   ROPT   =    0.00000   0.00000
 Ionic relaxation
   EDIFFG = -.2E-04   stopping-criterion for IOM
   NSW    =      0    number of steps for IOM
   NBLOCK =      1;   KBLOCK =      1    inner block; outer block 
   IBRION =     -1    ionic relax: 0-MD 1-quasi-New 2-CG
   NFREE  =      0    steps in history (QN), initial steepest desc. (CG)
   ISIF   =      2    stress and relaxation
   IWAVPR =     10    prediction:  0-non 1-charg 2-wave 3-comb
   ISYM   =      2    0-nonsym 1-usesym 2-fastsym
   LCORR  =      T    Harris-Foulkes like correction to forces

   POTIM  = 0.5000    time-step for ionic-motion
   TEIN   =    0.0    initial temperature
   TEBEG  =    0.0;   TEEND  =   0.0 temperature during run
   SMASS  =  -3.00    Nose mass-parameter (am)
   estimated Nose-frequenzy (Omega)   =  0.10E-29 period in steps = 0.13E+47 mass=  -0.573E-26a.u.
   SCALEE = 1.0000    scale energy and forces
   NPACO  =    256;   APACO  = 10.0  distance and # of slots for P.C.
   PSTRESS=    0.0 pullay stress

  Mass of Ions in am
   POMASS =  28.09 72.61
  Ionic Valenz
   ZVAL   =   4.00 14.00
  Atomic Wigner-Seitz radii
   RWIGS  =  -1.00 -1.00
  virtual crystal weights 
   VCA    =   1.00  1.00
   NELECT =    1152.0000    total number of electrons
   NUPDOWN=      -1.0000    fix difference up-down

 DOS related values:
   EMIN   =  10.00;   EMAX   =-10.00  energy-range for DOS
   EFERMI =   0.00;   METHOD = LEGACY      
   ISMEAR =     0;   SIGMA  =   0.01  broadening in eV -4-tet -1-fermi 0-gaus

 Electronic relaxation 2 (details)
   IALGO  =     38    algorithm
   LDIAG  =      T    sub-space diagonalisation (order eigenvalues)
   LSUBROT=      F    optimize rotation matrix (better conditioning)
   TURBO    =      0    0=normal 1=particle mesh
   IRESTART =      0    0=no restart 2=restart with 2 vectors
   NREBOOT  =      0    no. of reboots
   NMIN     =      0    reboot dimension
   EREF     =   0.00    reference energy to select bands
   IMIX   =      4    mixing-type and parameters
     AMIX     =   0.40;   BMIX     =  1.00
     AMIX_MAG =   1.60;   BMIX_MAG =  1.00
     AMIN     =   0.10
     WC   =   100.;   INIMIX=   1;  MIXPRE=   1;  MAXMIX= -45

 Intra band minimization:
   WEIMIN = 0.0000     energy-eigenvalue tresh-hold
   EBREAK =  0.36E-11  absolut break condition
   DEPER  =   0.30     relativ break condition  

   TIME   =   0.40     timestep for ELM

  volume/ion in A,a.u.               =      21.92       147.96
  Fermi-wavevector in a.u.,A,eV,Ry     =   1.216678  2.299189 20.140791  1.480306
  Thomas-Fermi vector in A             =   2.352024
 
 Write flags
   LWAVE        =      T    write WAVECAR
   LDOWNSAMPLE  =      F    k-point downsampling of WAVECAR
   LCHARG       =      T    write CHGCAR
   LVTOT        =      F    write LOCPOT, total local potential
   LVHAR        =      F    write LOCPOT, Hartree potential only
   WRT_POTENTIAL= false  ! write potential to hdf5 file
   LELF         =      F    write electronic localiz. function (ELF)
   LORBIT       =      0    0 simple, 1 ext, 2 COOP (PROOUT), +10 PAW based schemes


 Dipole corrections
   LMONO      =      F    monopole corrections only (constant potential shift)
   LDIPOL     =      F    correct potential (dipole corrections)
   IDIPOL     =      0    1-x, 2-y, 3-z, 4-all directions 
   EPSILON    =  1.0000000 bulk dielectric constant
   LVACPOTAV  =      F  vacuum potentials using an averaging scheme for the charge density
   VACPOTFLAT =  0.1000000 required flatness to determine vacuum potential
 Exchange correlation treatment:
   GGA     = PE    functional components
   XC_C    = 1    coefficients multiplying the functional components
   LIBXC   =     F    Libxc                    
   VOSKOWN =     0    Vosko Wilk Nusair interpolation
   LHFCALC =     F    Hartree Fock is set to
   LHFONE  =     F    Hartree Fock one center treatment
   AEXX    =    0.0000 exact exchange contribution

 Parameters of functionals:
   PE:
     No parameter
 
 Van der Waals corrections
   IVDW    =     0    specifies the selected vdW correction

 Linear response parameters
   LEPSILON=     F    determine dielectric tensor
   LRPA    =     F    only Hartree local field effects (RPA)
   LNABLA  =     F    use nabla operator in PAW spheres
   LVEL    =     F    velocity operator in full k-point grid
   CSHIFT  =0.1000    complex shift for real part using Kramers Kronig
   OMEGAMAX=  -1.0    maximum frequency
   DEG_THRESHOLD= 0.2000000E-02 threshold for treating states as degnerate
   RTIME   =   -0.100 relaxation time in fs
  (WPLASMAI=    0.000 imaginary part of plasma frequency in eV, 0.658/RTIME)
   DFIELD  = 0.0000000 0.0000000 0.0000000 field for delta impulse in time
 
  Optional k-point grid parameters
   LKPOINTS_OPT  =     F    use optional k-point grid
   KPOINTS_OPT_MODE=     1    mode for optional k-point grid
 
 Orbital magnetization related:
   ORBITALMAG=     F  switch on orbital magnetization
   LCHIMAG   =     F  perturbation theory with respect to B field
   DQ        =  0.001000  dq finite difference perturbation B field
   LLRAUG    =     F  two centre corrections for induced B field
   LBONE     =     F  B-component reconstruction in AE one-centre
   LVGVCALC  =     T  calculate vGv susceptibility
   LVGVAPPL  =     F  apply vGv susceptibility instead of pGv for G=0

 Random number generation:
   RANDOM_GENERATOR = DEFAULT
   PCG_SEED         = not used


--------------------------------------------------------------------------------------------------------


 Static calculation
 charge density and potential will be updated during run
 non-spin polarized calculation
 Variant of blocked Davidson
 Davidson routine will perform the subspace rotation
 perform sub-space diagonalisation
    after iterative eigenvector-optimisation
 modified Broyden-mixing scheme, WC =      100.0
 initial mixing is a Kerker type mixing with AMIX =  0.4000 and BMIX =      1.0000
 Hartree-type preconditioning will be used
 using additional bands          128
 reciprocal scheme for non local part
 use partial core corrections
 calculate Harris-corrections to forces 
   (improved forces if not selfconsistent)
 use gradient corrections 
 use of overlap-Matrix (Vanderbilt PP)
 Gauss-broadening in eV      SIGMA  =   0.01


--------------------------------------------------------------------------------------------------------


  energy-cutoff  :      600.00
  volume of cell :     2806.40
      direct lattice vectors                 reciprocal lattice vectors
    -0.000000000 11.195406075 11.195406075    -0.044661176  0.044661176  0.044661176
    11.195406075 -0.000000000 11.195406075     0.044661176 -0.044661176  0.044661176
    11.195406075 11.195406075  0.000000000     0.044661176  0.044661176 -0.044661176

  length of vectors
    15.832695107 15.832695107 15.832695107     0.077355426  0.077355426  0.077355426


 
 k-points in units of 2pi/SCALE and weight: Automatic kpoint scheme                 
   0.00000000  0.00000000  0.00000000       0.037
  -0.01488706  0.01488706  0.01488706       0.074
   0.01488706 -0.01488706  0.01488706       0.148
   0.01488706  0.01488706  0.01488706       0.074
   0.00000000  0.00000000  0.02977412       0.148
   0.02977412  0.00000000  0.00000000       0.074
   0.02977412 -0.02977412  0.00000000       0.148
   0.00000000  0.02977412 -0.02977412       0.074
  -0.01488706 -0.01488706  0.04466118       0.148
  -0.04466118  0.01488706  0.01488706       0.074
 
 k-points in reciprocal lattice and weights: Automatic kpoint scheme                 
   0.00000000  0.00000000  0.00000000       0.037
   0.33333333  0.00000000  0.00000000       0.074
   0.00000000  0.33333333  0.00000000       0.148
   0.33333333  0.33333333  0.33333333       0.074
   0.33333333  0.33333333  0.00000000       0.148
   0.00000000  0.33333333  0.33333333       0.074
  -0.33333333  0.33333333  0.00000000       0.148
   0.00000000 -0.33333333  0.33333333       0.074
   0.33333333  0.33333333 -0.33333333       0.148
   0.33333333 -0.33333333 -0.33333333       0.074
 
 position of ions in fractional coordinates (direct lattice) 
   0.00000000  0.00000000  0.00000000
   0.25000000  0.00000000  0.00000000
   0.50000000  0.00000000  0.00000000
   0.75000000  0.00000000  0.00000000
   0.00000000  0.25000000  0.00000000
   0.25000000  0.25000000  0.00000000
   0.50000000  0.25000000  0.00000000
   0.75000000  0.25000000  0.00000000
   0.00000000  0.50000000  0.00000000
   0.25000000  0.50000000  0.00000000
   0.50000000  0.50000000  0.00000000
   0.75000000  0.50000000  0.00000000
   0.00000000  0.75000000  0.00000000
   0.25000000  0.75000000  0.00000000
   0.50000000  0.75000000  0.00000000
   0.75000000  0.75000000  0.00000000
   0.00000000  0.00000000  0.25000000
   0.25000000  0.00000000  0.25000000
   0.50000000  0.00000000  0.25000000
   0.75000000  0.00000000  0.25000000
   0.00000000  0.25000000  0.25000000
   0.25000000  0.25000000  0.25000000
   0.50000000  0.25000000  0.25000000
   0.75000000  0.25000000  0.25000000
   0.00000000  0.50000000  0.25000000
   0.25000000  0.50000000  0.25000000
   0.50000000  0.50000000  0.25000000
   0.75000000  0.50000000  0.25000000
   0.00000000  0.75000000  0.25000000
   0.25000000  0.75000000  0.25000000
   0.50000000  0.75000000  0.25000000
   0.75000000  0.75000000  0.25000000
   0.00000000  0.00000000  0.50000000
   0.25000000  0.00000000  0.50000000
   0.50000000  0.00000000  0.50000000
   0.75000000  0.00000000  0.50000000
   0.00000000  0.25000000  0.50000000
   0.25000000  0.25000000  0.50000000
   0.50000000  0.25000000  0.50000000
   0.75000000  0.25000000  0.50000000
   0.00000000  0.50000000  0.50000000
   0.25000000  0.50000000  0.50000000
   0.50000000  0.50000000  0.50000000
   0.75000000  0.50000000  0.50000000
   0.00000000  0.75000000  0.50000000
   0.25000000  0.75000000  0.50000000
   0.50000000  0.75000000  0.50000000
   0.75000000  0.75000000  0.50000000
   0.00000000  0.00000000  0.75000000
   0.25000000  0.00000000  0.75000000
   0.50000000  0.00000000  0.75000000
   0.75000000  0.00000000  0.75000000
   0.00000000  0.25000000  0.75000000
   0.25000000  0.25000000  0.75000000
   0.50000000  0.25000000  0.75000000
   0.75000000  0.25000000  0.75000000
   0.00000000  0.50000000  0.75000000
   0.25000000  0.50000000  0.75000000
   0.50000000  0.50000000  0.75000000
   0.75000000  0.50000000  0.75000000
   0.00000000  0.75000000  0.75000000
   0.25000000  0.75000000  0.75000000
   0.50000000  0.75000000  0.75000000
   0.75000000  0.75000000  0.75000000
   0.18813160  0.18750000  0.18750000
   0.43750000  0.18750000  0.18750000
   0.68750000  0.18750000  0.18750000
   0.93750000  0.18750000  0.18750000
   0.18750000  0.43750000  0.18750000
   0.43750000  0.43750000  0.18750000
   0.68750000  0.43750000  0.18750000
   0.93750000  0.43750000  0.18750000
   0.18750000  0.68750000  0.18750000
   0.43750000  0.68750000  0.18750000
   0.68750000  0.68750000  0.18750000
   0.93750000  0.68750000  0.18750000
   0.18750000  0.93750000  0.18750000
   0.43750000  0.93750000  0.18750000
   0.68750000  0.93750000  0.18750000
   0.93750000  0.93750000  0.18750000
   0.18750000  0.18750000  0.43750000
   0.43750000  0.18750000  0.43750000
   0.68750000  0.18750000  0.43750000
   0.93750000  0.18750000  0.43750000
   0.18750000  0.43750000  0.43750000
   0.43750000  0.43750000  0.43750000
   0.68750000  0.43750000  0.43750000
   0.93750000  0.43750000  0.43750000
   0.18750000  0.68750000  0.43750000
   0.43750000  0.68750000  0.43750000
   0.68750000  0.68750000  0.43750000
   0.93750000  0.68750000  0.43750000
   0.18750000  0.93750000  0.43750000
   0.43750000  0.93750000  0.43750000
   0.68750000  0.93750000  0.43750000
   0.93750000  0.93750000  0.43750000
   0.18750000  0.18750000  0.68750000
   0.43750000  0.18750000  0.68750000
   0.68750000  0.18750000  0.68750000
   0.93750000  0.18750000  0.68750000
   0.18750000  0.43750000  0.68750000
   0.43750000  0.43750000  0.68750000
   0.68750000  0.43750000  0.68750000
   0.93750000  0.43750000  0.68750000
   0.18750000  0.68750000  0.68750000
   0.43750000  0.68750000  0.68750000
   0.68750000  0.68750000  0.68750000
   0.93750000  0.68750000  0.68750000
   0.18750000  0.93750000  0.68750000
   0.43750000  0.93750000  0.68750000
   0.68750000  0.93750000  0.68750000
   0.93750000  0.93750000  0.68750000
   0.18750000  0.18750000  0.93750000
   0.43750000  0.18750000  0.93750000
   0.68750000  0.18750000  0.93750000
   0.93750000  0.18750000  0.93750000
   0.18750000  0.43750000  0.93750000
   0.43750000  0.43750000  0.93750000
   0.68750000  0.43750000  0.93750000
   0.93750000  0.43750000  0.93750000
   0.18750000  0.68750000  0.93750000
   0.43750000  0.68750000  0.93750000
   0.68750000  0.68750000  0.93750000
   0.93750000  0.68750000  0.93750000
   0.18750000  0.93750000  0.93750000
   0.43750000  0.93750000  0.93750000
   0.68750000  0.93750000  0.93750000
   0.93750000  0.93750000  0.93750000
 
 position of ions in cartesian coordinates  (Angst):
   0.00000000  0.00000000  0.00000000
  -0.00000000  2.79885152  2.79885152
  -0.00000000  5.59770304  5.59770304
  -0.00000000  8.39655456  8.39655456
   2.79885152 -0.00000000  2.79885152
   2.79885152  2.79885152  5.59770304
   2.79885152  5.59770304  8.39655456
   2.79885152  8.39655456 11.19540607
   5.59770304 -0.00000000  5.59770304
   5.59770304  2.79885152  8.39655456
   5.59770304  5.59770304 11.19540607
   5.59770304  8.39655456 13.99425759
   8.39655456 -0.00000000  8.39655456
   8.39655456  2.79885152 11.19540607
   8.39655456  5.59770304 13.99425759
   8.39655456  8.39655456 16.79310911
   2.79885152  2.79885152  0.00000000
   2.79885152  5.59770304  2.79885152
   2.79885152  8.39655456  5.59770304
   2.79885152 11.19540607  8.39655456
   5.59770304  2.79885152  2.79885152
   5.59770304  5.59770304  5.59770304
   5.59770304  8.39655456  8.39655456
   5.59770304 11.19540607 11.19540607
   8.39655456  2.79885152  5.59770304
   8.39655456  5.59770304  8.39655456
   8.39655456  8.39655456 11.19540607
   8.39655456 11.19540607 13.99425759
  11.19540607  2.79885152  8.39655456
  11.19540607  5.59770304 11.19540607
  11.19540607  8.39655456 13.99425759
  11.19540607 11.19540607 16.79310911
   5.59770304  5.59770304  0.00000000
   5.59770304  8.39655456  2.79885152
   5.59770304 11.19540607  5.59770304
   5.59770304 13.99425759  8.39655456
   8.39655456  5.59770304  2.79885152
   8.39655456  8.39655456  5.59770304
   8.39655456 11.19540607  8.39655456
   8.39655456 13.99425759 11.19540607
  11.19540607  5.59770304  5.59770304
  11.19540607  8.39655456  8.39655456
  11.19540607 11.19540607 11.19540607
  11.19540607 13.99425759 13.99425759
  13.99425759  5.59770304  8.39655456
  13.99425759  8.39655456 11.19540607
  13.99425759 11.19540607 13.99425759
  13.99425759 13.99425759 16.79310911
   8.39655456  8.39655456  0.00000000
   8.39655456 11.19540607  2.79885152
   8.39655456 13.99425759  5.59770304
   8.39655456 16.79310911  8.39655456
  11.19540607  8.39655456  2.79885152
  11.19540607 11.19540607  5.59770304
  11.19540607 13.99425759  8.39655456
  11.19540607 16.79310911 11.19540607
  13.99425759  8.39655456  5.59770304
  13.99425759 11.19540607  8.39655456
  13.99425759 13.99425759 11.19540607
  13.99425759 16.79310911 13.99425759
  16.79310911  8.39655456  8.39655456
  16.79310911 11.19540607 11.19540607
  16.79310911 13.99425759 13.99425759
  16.79310911 16.79310911 16.79310911
   4.19827728  4.20534835  4.20534835
   4.19827728  6.99712880  6.99712880
   4.19827728  9.79598032  9.79598032
   4.19827728 12.59483183 12.59483183
   6.99712880  4.19827728  6.99712880
   6.99712880  6.99712880  9.79598032
   6.99712880  9.79598032 12.59483183
   6.99712880 12.59483183 15.39368335
   9.79598032  4.19827728  9.79598032
   9.79598032  6.99712880 12.59483183
   9.79598032  9.79598032 15.39368335
   9.79598032 12.59483183 18.19253487
  12.59483183  4.19827728 12.59483183
  12.59483183  6.99712880 15.39368335
  12.59483183  9.79598032 18.19253487
  12.59483183 12.59483183 20.99138639
   6.99712880  6.99712880  4.19827728
   6.99712880  9.79598032  6.99712880
   6.99712880 12.59483183  9.79598032
   6.99712880 15.39368335 12.59483183
   9.79598032  6.99712880  6.99712880
   9.79598032  9.79598032  9.79598032
   9.79598032 12.59483183 12.59483183
   9.79598032 15.39368335 15.39368335
  12.59483183  6.99712880  9.79598032
  12.59483183  9.79598032 12.59483183
  12.59483183 12.59483183 15.39368335
  12.59483183 15.39368335 18.19253487
  15.39368335  6.99712880 12.59483183
  15.39368335  9.79598032 15.39368335
  15.39368335 12.59483183 18.19253487
  15.39368335 15.39368335 20.99138639
   9.79598032  9.79598032  4.19827728
   9.79598032 12.59483183  6.99712880
   9.79598032 15.39368335  9.79598032
   9.79598032 18.19253487 12.59483183
  12.59483183  9.79598032  6.99712880
  12.59483183 12.59483183  9.79598032
  12.59483183 15.39368335 12.59483183
  12.59483183 18.19253487 15.39368335
  15.39368335  9.79598032  9.79598032
  15.39368335 12.59483183 12.59483183
  15.39368335 15.39368335 15.39368335
  15.39368335 18.19253487 18.19253487
  18.19253487  9.79598032 12.59483183
  18.19253487 12.59483183 15.39368335
  18.19253487 15.39368335 18.19253487
  18.19253487 18.19253487 20.99138639
  12.59483183 12.59483183  4.19827728
  12.59483183 15.39368335  6.99712880
  12.59483183 18.19253487  9.79598032
  12.59483183 20.99138639 12.59483183
  15.39368335 12.59483183  6.99712880
  15.39368335 15.39368335  9.79598032
  15.39368335 18.19253487 12.59483183
  15.39368335 20.99138639 15.39368335
  18.19253487 12.59483183  9.79598032
  18.19253487 15.39368335 12.59483183
  18.19253487 18.19253487 15.39368335
  18.19253487 20.99138639 18.19253487
  20.99138639 12.59483183 12.59483183
  20.99138639 15.39368335 15.39368335
  20.99138639 18.19253487 18.19253487
  20.99138639 20.99138639 20.99138639
 


--------------------------------------------------------------------------------------------------------


 k-point     1 :   0.0000 0.0000 0.0000  plane waves:   93585
 k-point     2 :   0.3333 0.0000 0.0000  plane waves:   93619
 k-point     3 :   0.0000 0.3333 0.0000  plane waves:   93619
 k-point     4 :   0.3333 0.3333 0.3333  plane waves:   93619
 k-point     5 :   0.3333 0.3333 0.0000  plane waves:   93665
 k-point     6 :   0.0000 0.3333 0.3333  plane waves:   93665
 k-point     7 :  -0.3333 0.3333 0.0000  plane waves:   93638
 k-point     8 :   0.0000-0.3333 0.3333  plane waves:   93638
 k-point     9 :   0.3333 0.3333-0.3333  plane waves:   93638
 k-point    10 :   0.3333-0.3333-0.3333  plane waves:   93638

 maximum and minimum number of plane-waves per node :      5925     5814

 maximum number of plane-waves:     93665
 maximum index in each direction: 
   IXMAX=   31   IYMAX=   31   IZMAX=   31
   IXMIN=  -31   IYMIN=  -31   IZMIN=  -31


 parallel 3D FFT for wavefunctions:
    minimum data exchange during FFTs selected (reduces bandwidth)
 parallel 3D FFT for charge:
    minimum data exchange during FFTs selected (reduces bandwidth)


 total amount of memory used by VASP MPI-rank0   115875. kBytes
=======================================================================

   base      :      30000. kBytes
   nonl-proj :      28937. kBytes
   fftplans  :       6015. kBytes
   grid      :       8672. kBytes
   one-center:        124. kBytes
   wavefun   :      42127. kBytes
 
     INWAV:  cpu time      0.0000: real time      0.0000
 Broyden mixing: mesh for mixing (old mesh)
   NGX = 63   NGY = 63   NGZ = 63
  (NGX  =252   NGY  =252   NGZ  =252)
  gives a total of 250047 points

 initial charge density was supplied:
 charge density of overlapping atoms calculated
 number of electron    1152.0000000 magnetization 
 keeping initial charge density in first step


--------------------------------------------------------------------------------------------------------


 Maximum index for augmentation-charges          913 (set IRDMAX)


--------------------------------------------------------------------------------------------------------


 First call to EWALD:  gamma=   0.126
 Maximum number of real-space cells 3x 3x 3
 Maximum number of reciprocal cells 3x 3x 3

    FEWALD:  cpu time      0.0185: real time      0.0186


--------------------------------------- Ionic step        1  -------------------------------------------




--------------------------------------- Iteration      1(   1)  ---------------------------------------


    POTLOK:  cpu time      0.2288: real time      0.2353
    SETDIJ:  cpu time      0.0141: real time      0.0141
     EDDAV:  cpu time     56.5813: real time     56.8582
       DOS:  cpu time      0.0086: real time      0.0092
    --------------------------------------------
      LOOP:  cpu time     56.8328: real time     57.1168

 eigenvalue-minimisations  : 16672
 total energy-change (2. order) : 0.2063973E+05  (-0.4410341E+05)
 number of electron    1152.0000000 magnetization 
 augmentation part     1152.0000000 magnetization 

 Free energy of the ion-electron system (eV)
  ---------------------------------------------------
  alpha Z        PSCENC =      2970.02515869
  Ewald energy   TEWEN  =    -87406.15972304
  -Hartree energ DENC   =    -53633.28046070
  -exchange      EXHF   =         0.00000000
  -V(xc)+E(xc)   XCENC  =      4074.08040563
  PAW double counting   =    123183.33653208  -149894.99457999
  entropy T*S    EENTRO =        -0.00107376
  eigenvalues    EBANDS =      8591.25081842
  atomic energy  EATOM  =    172755.47663999
  Solvation  Ediel_sol  =         0.00000000
  ---------------------------------------------------
  free energy    TOTEN  =     20639.73371731 eV

  energy without entropy =    20639.73479107  energy(sigma->0) =    20639.73425419


--------------------------------------------------------------------------------------------------------




--------------------------------------- Iteration      1(   2)  ---------------------------------------


     EDDAV:  cpu time     50.7212: real time     50.9388
       DOS:  cpu time      0.0037: real time      0.0038
    --------------------------------------------
      LOOP:  cpu time     50.7249: real time     50.9426

 eigenvalue-minimisations  : 14080
 total energy-change (2. order) :-0.1658073E+05  (-0.1590919E+05)
 number of electron    1152.0000000 magnetization 
 augmentation part     1152.0000000 magnetization 

 Free energy of the ion-electron system (eV)
  ---------------------------------------------------
  alpha Z        PSCENC =      2970.02515869
  Ewald energy   TEWEN  =    -87406.15972304
  -Hartree energ DENC   =    -53633.28046070
  -exchange      EXHF   =         0.00000000
  -V(xc)+E(xc)   XCENC  =      4074.08040563
  PAW double counting   =    123183.33653208  -149894.99457999
  entropy T*S    EENTRO =        -0.00142109
  eigenvalues    EBANDS =     -7989.47587778
  atomic energy  EATOM  =    172755.47663999
  Solvation  Ediel_sol  =         0.00000000
  ---------------------------------------------------
  free energy    TOTEN  =      4059.00667378 eV

  energy without entropy =     4059.00809487  energy(sigma->0) =     4059.00738433


--------------------------------------------------------------------------------------------------------




--------------------------------------- Iteration      1(   3)  ---------------------------------------


     EDDAV:  cpu time     51.3337: real time     51.5567
       DOS:  cpu time      0.0039: real time      0.0039
    --------------------------------------------
      LOOP:  cpu time     51.3375: real time     51.5607

 eigenvalue-minimisations  : 14160
 total energy-change (2. order) :-0.3957438E+04  (-0.3735618E+04)
 number of electron    1152.0000000 magnetization 
 augmentation part     1152.0000000 magnetization 

 Free energy of the ion-electron system (eV)
  ---------------------------------------------------
  alpha Z        PSCENC =      2970.02515869
  Ewald energy   TEWEN  =    -87406.15972304
  -Hartree energ DENC   =    -53633.28046070
  -exchange      EXHF   =         0.00000000
  -V(xc)+E(xc)   XCENC  =      4074.08040563
  PAW double counting   =    123183.33653208  -149894.99457999
  entropy T*S    EENTRO =        -0.00089723
  eigenvalues    EBANDS =    -11946.91462613
  atomic energy  EATOM  =    172755.47663999
  Solvation  Ediel_sol  =         0.00000000
  ---------------------------------------------------
  free energy    TOTEN  =       101.56844929 eV

  energy without entropy =      101.56934653  energy(sigma->0) =      101.56889791


--------------------------------------------------------------------------------------------------------




--------------------------------------- Iteration      1(   4)  ---------------------------------------


     EDDAV:  cpu time     58.3916: real time     58.6395
       DOS:  cpu time      0.0019: real time      0.0019
    --------------------------------------------
      LOOP:  cpu time     58.3935: real time     58.6415

 eigenvalue-minimisations  : 16752
 total energy-change (2. order) :-0.6916257E+03  (-0.6459260E+03)
 number of electron    1152.0000000 magnetization 
 augmentation part     1152.0000000 magnetization 

 Free energy of the ion-electron system (eV)
  ---------------------------------------------------
  alpha Z        PSCENC =      2970.02515869
  Ewald energy   TEWEN  =    -87406.15972304
  -Hartree energ DENC   =    -53633.28046070
  -exchange      EXHF   =         0.00000000
  -V(xc)+E(xc)   XCENC  =      4074.08040563
  PAW double counting   =    123183.33653208  -149894.99457999
  entropy T*S    EENTRO =        -0.00000000
  eigenvalues    EBANDS =    -12638.54125737
  atomic energy  EATOM  =    172755.47663999
  Solvation  Ediel_sol  =         0.00000000
  ---------------------------------------------------
  free energy    TOTEN  =      -590.05728472 eV

  energy without entropy =     -590.05728472  energy(sigma->0) =     -590.05728472


--------------------------------------------------------------------------------------------------------




--------------------------------------- Iteration      1(   5)  ---------------------------------------


     EDDAV:  cpu time     57.9564: real time     58.2062
       DOS:  cpu time      0.0019: real time      0.0019
    CHARGE:  cpu time      1.7172: real time      1.7258
    MIXING:  cpu time      0.0169: real time      0.0169
    --------------------------------------------
      LOOP:  cpu time     59.6923: real time     59.9508

 eigenvalue-minimisations  : 16320
 total energy-change (2. order) :-0.4840116E+02  (-0.4752745E+02)
 number of electron    1151.9999762 magnetization 
 augmentation part      524.2273478 magnetization 

 Broyden mixing:
  rms(total) = 0.32337E+01    rms(broyden)= 0.32337E+01
  rms(prec ) = 0.35175E+01
  weight for this iteration     100.00

 Free energy of the ion-electron system (eV)
  ---------------------------------------------------
  alpha Z        PSCENC =      2970.02515869
  Ewald energy   TEWEN  =    -87406.15972304
  -Hartree energ DENC   =    -53633.28046070
  -exchange      EXHF   =         0.00000000
  -V(xc)+E(xc)   XCENC  =      4074.08040563
  PAW double counting   =    123183.33653208  -149894.99457999
  entropy T*S    EENTRO =        -0.00000000
  eigenvalues    EBANDS =    -12686.94241850
  atomic energy  EATOM  =    172755.47663999
  Solvation  Ediel_sol  =         0.00000000
  ---------------------------------------------------
  free energy    TOTEN  =      -638.45844585 eV

  energy without entropy =     -638.45844585  energy(sigma->0) =     -638.45844585


--------------------------------------------------------------------------------------------------------




--------------------------------------- Iteration      1(   6)  ---------------------------------------


    POTLOK:  cpu time      0.2233: real time      0.2261
    SETDIJ:  cpu time      0.0142: real time      0.0142
     EDDAV:  cpu time     63.2112: real time     63.4771
       DOS:  cpu time      0.0021: real time      0.0021
    CHARGE:  cpu time      1.7196: real time      1.7284
    MIXING:  cpu time      0.0030: real time      0.0030
    --------------------------------------------
      LOOP:  cpu time     65.1733: real time     65.4509

 eigenvalue-minimisations  : 18208
 total energy-change (2. order) : 0.2999200E+01  (-0.2208757E+01)
 number of electron    1151.9999762 magnetization 
 augmentation part      524.3704686 magnetization 

 Broyden mixing:
  rms(total) = 0.18117E+01    rms(broyden)= 0.18117E+01
  rms(prec ) = 0.19914E+01
  weight for this iteration     100.00

 eigenvalues of (default mixing * dielectric matrix)
  average eigenvalue GAMMA=   2.2130
  2.2130

 Free energy of the ion-electron system (eV)
  ---------------------------------------------------
  alpha Z        PSCENC =      2970.02515869
  Ewald energy   TEWEN  =    -87406.15972304
  -Hartree energ DENC   =    -53632.49340810
  -exchange      EXHF   =         0.00000000
  -V(xc)+E(xc)   XCENC  =      4074.62581548
  PAW double counting   =    141133.11943571  -167909.20298062
  entropy T*S    EENTRO =        -0.00000000
  eigenvalues    EBANDS =    -12620.85018354
  atomic energy  EATOM  =    172755.47663999
  Solvation  Ediel_sol  =         0.00000000
  ---------------------------------------------------
  free energy    TOTEN  =      -635.45924543 eV

  energy without entropy =     -635.45924543  energy(sigma->0) =     -635.45924543


--------------------------------------------------------------------------------------------------------




--------------------------------------- Iteration      1(   7)  ---------------------------------------


    POTLOK:  cpu time      0.2225: real time      0.2239
    SETDIJ:  cpu time      0.0141: real time      0.0142
     EDDAV:  cpu time     61.8575: real time     62.1481
       DOS:  cpu time      0.0021: real time      0.0021
    CHARGE:  cpu time      1.7160: real time      1.7254
    MIXING:  cpu time      0.0029: real time      0.0029
    --------------------------------------------
      LOOP:  cpu time     63.8151: real time     64.1166

 eigenvalue-minimisations  : 17584
 total energy-change (2. order) : 0.2401227E+01  (-0.4300681E+00)
 number of electron    1151.9999763 magnetization 
 augmentation part      524.7552915 magnetization 

 Broyden mixing:
  rms(total) = 0.20203E+00    rms(broyden)= 0.20203E+00
  rms(prec ) = 0.23049E+00
  weight for this iteration     100.00

 eigenvalues of (default mixing * dielectric matrix)
  average eigenvalue GAMMA=   1.8629
  1.1826  2.5432

 Free energy of the ion-electron system (eV)
  ---------------------------------------------------
  alpha Z        PSCENC =      2970.02515869
  Ewald energy   TEWEN  =    -87406.15972304
  -Hartree energ DENC   =    -53713.64715617
  -exchange      EXHF   =         0.00000000
  -V(xc)+E(xc)   XCENC  =      4079.21848046
  PAW double counting   =    167795.56166938  -194689.72225671
  entropy T*S    EENTRO =        -0.00000000
  eigenvalues    EBANDS =    -12423.81083145
  atomic energy  EATOM  =    172755.47663999
  Solvation  Ediel_sol  =         0.00000000
  ---------------------------------------------------
  free energy    TOTEN  =      -633.05801885 eV

  energy without entropy =     -633.05801885  energy(sigma->0) =     -633.05801885


--------------------------------------------------------------------------------------------------------




--------------------------------------- Iteration      1(   8)  ---------------------------------------


    POTLOK:  cpu time      0.2313: real time      0.2345
    SETDIJ:  cpu time      0.0138: real time      0.0139
     EDDAV:  cpu time     64.6820: real time     64.9530
       DOS:  cpu time      0.0020: real time      0.0020
    CHARGE:  cpu time      1.7119: real time      1.7205
    MIXING:  cpu time      0.0036: real time      0.0036
    --------------------------------------------
      LOOP:  cpu time     66.6446: real time     66.9275

 eigenvalue-minimisations  : 18528
 total energy-change (2. order) :-0.1052699E+00  (-0.4689605E-01)
 number of electron    1151.9999763 magnetization 
 augmentation part      524.7595275 magnetization 

 Broyden mixing:
  rms(total) = 0.95750E-01    rms(broyden)= 0.95750E-01
  rms(prec ) = 0.10174E+00
  weight for this iteration     100.00

 eigenvalues of (default mixing * dielectric matrix)
  average eigenvalue GAMMA=   1.7944
  0.9249  2.4807  1.9776

 Free energy of the ion-electron system (eV)
  ---------------------------------------------------
  alpha Z        PSCENC =      2970.02515869
  Ewald energy   TEWEN  =    -87406.15972304
  -Hartree energ DENC   =    -53738.33925424
  -exchange      EXHF   =         0.00000000
  -V(xc)+E(xc)   XCENC  =      4080.38750254
  PAW double counting   =    170803.23116785  -197715.46031153
  entropy T*S    EENTRO =        -0.00000000
  eigenvalues    EBANDS =    -12382.32446904
  atomic energy  EATOM  =    172755.47663999
  Solvation  Ediel_sol  =         0.00000000
  ---------------------------------------------------
  free energy    TOTEN  =      -633.16328879 eV

  energy without entropy =     -633.16328879  energy(sigma->0) =     -633.16328879


--------------------------------------------------------------------------------------------------------




--------------------------------------- Iteration      1(   9)  ---------------------------------------


    POTLOK:  cpu time      0.2246: real time      0.2270
    SETDIJ:  cpu time      0.0142: real time      0.0143
     EDDAV:  cpu time     61.7702: real time     62.0294
       DOS:  cpu time      0.0022: real time      0.0022
    CHARGE:  cpu time      1.7376: real time      1.7463
    MIXING:  cpu time      0.0033: real time      0.0033
    --------------------------------------------
      LOOP:  cpu time     63.7521: real time     64.0224

 eigenvalue-minimisations  : 17296
 total energy-change (2. order) :-0.3046424E-01  (-0.3188758E-02)
 number of electron    1151.9999763 magnetization 
 augmentation part      524.7502067 magnetization 

 Broyden mixing:
  rms(total) = 0.41786E-01    rms(broyden)= 0.41786E-01
  rms(prec ) = 0.44771E-01
  weight for this iteration     100.00

 eigenvalues of (default mixing * dielectric matrix)
  average eigenvalue GAMMA=   1.7814
  2.3866  2.3866  1.0356  1.3169

 Free energy of the ion-electron system (eV)
  ---------------------------------------------------
  alpha Z        PSCENC =      2970.02515869
  Ewald energy   TEWEN  =    -87406.15972304
  -Hartree energ DENC   =    -53747.57852379
  -exchange      EXHF   =         0.00000000
  -V(xc)+E(xc)   XCENC  =      4080.73142714
  PAW double counting   =    169813.00698123  -196723.67337953
  entropy T*S    EENTRO =        -0.00000000
  eigenvalues    EBANDS =    -12375.02233371
  atomic energy  EATOM  =    172755.47663999
  Solvation  Ediel_sol  =         0.00000000
  ---------------------------------------------------
  free energy    TOTEN  =      -633.19375302 eV

  energy without entropy =     -633.19375302  energy(sigma->0) =     -633.19375302


--------------------------------------------------------------------------------------------------------




--------------------------------------- Iteration      1(  10)  ---------------------------------------


    POTLOK:  cpu time      0.2233: real time      0.2277
    SETDIJ:  cpu time      0.0139: real time      0.0139
     EDDAV:  cpu time     58.7160: real time     58.9602
       DOS:  cpu time      0.0021: real time      0.0021
    CHARGE:  cpu time      2.0773: real time      2.0868
    MIXING:  cpu time      0.0040: real time      0.0041
    --------------------------------------------
      LOOP:  cpu time     61.0366: real time     61.2948

 eigenvalue-minimisations  : 15744
 total energy-change (2. order) :-0.7390771E-02  (-0.7980027E-03)
 number of electron    1151.9999763 magnetization 
 augmentation part      524.7567070 magnetization 

 Broyden mixing:
  rms(total) = 0.14147E-01    rms(broyden)= 0.14147E-01
  rms(prec ) = 0.15726E-01
  weight for this iteration     100.00

 eigenvalues of (default mixing * dielectric matrix)
  average eigenvalue GAMMA=   1.7946
  2.5685  2.5685  1.8790  1.0015  0.9555

 Free energy of the ion-electron system (eV)
  ---------------------------------------------------
  alpha Z        PSCENC =      2970.02515869
  Ewald energy   TEWEN  =    -87406.15972304
  -Hartree energ DENC   =    -53749.28099518
  -exchange      EXHF   =         0.00000000
  -V(xc)+E(xc)   XCENC  =      4080.88146899
  PAW double counting   =    169433.87422060  -196341.79427881
  entropy T*S    EENTRO =        -0.00000000
  eigenvalues    EBANDS =    -12376.22363504
  atomic energy  EATOM  =    172755.47663999
  Solvation  Ediel_sol  =         0.00000000
  ---------------------------------------------------
  free energy    TOTEN  =      -633.20114379 eV

  energy without entropy =     -633.20114379  energy(sigma->0) =     -633.20114379


--------------------------------------------------------------------------------------------------------




--------------------------------------- Iteration      1(  11)  ---------------------------------------


    POTLOK:  cpu time      0.2715: real time      0.2743
    SETDIJ:  cpu time      0.0147: real time      0.0147
     EDDAV:  cpu time     59.4812: real time     59.7274
       DOS:  cpu time      0.0023: real time      0.0023
    CHARGE:  cpu time      1.7397: real time      1.7482
    MIXING:  cpu time      0.0040: real time      0.0040
    --------------------------------------------
      LOOP:  cpu time     61.5135: real time     61.7710

 eigenvalue-minimisations  : 16096
 total energy-change (2. order) :-0.1431211E-02  (-0.2495949E-03)
 number of electron    1151.9999763 magnetization 
 augmentation part      524.7594725 magnetization 

 Broyden mixing:
  rms(total) = 0.34057E-02    rms(broyden)= 0.34057E-02
  rms(prec ) = 0.41389E-02
  weight for this iteration     100.00

 eigenvalues of (default mixing * dielectric matrix)
  average eigenvalue GAMMA=   1.7228
  2.9789  2.5165  1.6949  1.2066  1.0646  0.8751

 Free energy of the ion-electron system (eV)
  ---------------------------------------------------
  alpha Z        PSCENC =      2970.02515869
  Ewald energy   TEWEN  =    -87406.15972304
  -Hartree energ DENC   =    -53750.87826077
  -exchange      EXHF   =         0.00000000
  -V(xc)+E(xc)   XCENC  =      4080.97569160
  PAW double counting   =    169346.50971238  -196253.85456325
  entropy T*S    EENTRO =        -0.00000000
  eigenvalues    EBANDS =    -12375.29723059
  atomic energy  EATOM  =    172755.47663999
  Solvation  Ediel_sol  =         0.00000000
  ---------------------------------------------------
  free energy    TOTEN  =      -633.20257500 eV

  energy without entropy =     -633.20257500  energy(sigma->0) =     -633.20257500


--------------------------------------------------------------------------------------------------------




--------------------------------------- Iteration      1(  12)  ---------------------------------------


    POTLOK:  cpu time      0.2277: real time      0.2292
    SETDIJ:  cpu time      0.0144: real time      0.0144
     EDDAV:  cpu time     63.2172: real time     63.4827
       DOS:  cpu time      0.0023: real time      0.0023
    CHARGE:  cpu time      1.7429: real time      1.7516
    MIXING:  cpu time      0.0033: real time      0.0033
    --------------------------------------------
      LOOP:  cpu time     65.2077: real time     65.4835

 eigenvalue-minimisations  : 17552
 total energy-change (2. order) :-0.1630947E-03  (-0.5637294E-04)
 number of electron    1151.9999763 magnetization 
 augmentation part      524.7595303 magnetization 

 Broyden mixing:
  rms(total) = 0.17535E-02    rms(broyden)= 0.17535E-02
  rms(prec ) = 0.19506E-02
  weight for this iteration     100.00

 eigenvalues of (default mixing * dielectric matrix)
  average eigenvalue GAMMA=   1.7062
  3.0552  2.5279  1.7660  1.7660  1.0859  0.8713  0.8713

 Free energy of the ion-electron system (eV)
  ---------------------------------------------------
  alpha Z        PSCENC =      2970.02515869
  Ewald energy   TEWEN  =    -87406.15972304
  -Hartree energ DENC   =    -53752.17510648
  -exchange      EXHF   =         0.00000000
  -V(xc)+E(xc)   XCENC  =      4081.01799862
  PAW double counting   =    169327.04467724  -196234.71498691
  entropy T*S    EENTRO =        -0.00000000
  eigenvalues    EBANDS =    -12373.71739621
  atomic energy  EATOM  =    172755.47663999
  Solvation  Ediel_sol  =         0.00000000
  ---------------------------------------------------
  free energy    TOTEN  =      -633.20273810 eV

  energy without entropy =     -633.20273810  energy(sigma->0) =     -633.20273810


--------------------------------------------------------------------------------------------------------




--------------------------------------- Iteration      1(  13)  ---------------------------------------


    POTLOK:  cpu time      0.2267: real time      0.2281
    SETDIJ:  cpu time      0.0142: real time      0.0142
     EDDAV:  cpu time     62.8722: real time     63.1650
       DOS:  cpu time      0.0021: real time      0.0021
    CHARGE:  cpu time      1.7508: real time      1.7605
    MIXING:  cpu time      0.0041: real time      0.0041
    --------------------------------------------
      LOOP:  cpu time     64.8701: real time     65.1741

 eigenvalue-minimisations  : 17408
 total energy-change (2. order) :-0.5645113E-04  (-0.3525805E-04)
 number of electron    1151.9999763 magnetization 
 augmentation part      524.7603246 magnetization 

 Broyden mixing:
  rms(total) = 0.10541E-02    rms(broyden)= 0.10540E-02
  rms(prec ) = 0.11665E-02
  weight for this iteration     100.00

 eigenvalues of (default mixing * dielectric matrix)
  average eigenvalue GAMMA=   1.6275
  3.0807  2.5524  1.9056  1.9056  1.1607  0.9062  0.9062  0.6026

 Free energy of the ion-electron system (eV)
  ---------------------------------------------------
  alpha Z        PSCENC =      2970.02515869
  Ewald energy   TEWEN  =    -87406.15972304
  -Hartree energ DENC   =    -53752.77417600
  -exchange      EXHF   =         0.00000000
  -V(xc)+E(xc)   XCENC  =      4081.03419765
  PAW double counting   =    169337.79817932  -196245.68618625
  entropy T*S    EENTRO =        -0.00000000
  eigenvalues    EBANDS =    -12372.91688490
  atomic energy  EATOM  =    172755.47663999
  Solvation  Ediel_sol  =         0.00000000
  ---------------------------------------------------
  free energy    TOTEN  =      -633.20279455 eV

  energy without entropy =     -633.20279455  energy(sigma->0) =     -633.20279455


--------------------------------------------------------------------------------------------------------




--------------------------------------- Iteration      1(  14)  ---------------------------------------


    POTLOK:  cpu time      0.2270: real time      0.2310
    SETDIJ:  cpu time      0.0148: real time      0.0149
     EDDAV:  cpu time     65.4289: real time     65.7046
       DOS:  cpu time      0.0021: real time      0.0022
    CHARGE:  cpu time      1.7417: real time      1.7503
    MIXING:  cpu time      0.0036: real time      0.0036
    --------------------------------------------
      LOOP:  cpu time     67.4181: real time     67.7065

 eigenvalue-minimisations  : 18304
 total energy-change (2. order) :-0.8771924E-05  (-0.6065170E-05)
 number of electron    1151.9999763 magnetization 
 augmentation part      524.7606098 magnetization 

 Broyden mixing:
  rms(total) = 0.51932E-03    rms(broyden)= 0.51931E-03
  rms(prec ) = 0.56927E-03
  weight for this iteration     100.00

 eigenvalues of (default mixing * dielectric matrix)
  average eigenvalue GAMMA=   1.6022
  3.2629  2.5979  2.3166  1.4416  1.4416  0.9893  0.9893  0.7525  0.6282

 Free energy of the ion-electron system (eV)
  ---------------------------------------------------
  alpha Z        PSCENC =      2970.02515869
  Ewald energy   TEWEN  =    -87406.15972304
  -Hartree energ DENC   =    -53752.78725955
  -exchange      EXHF   =         0.00000000
  -V(xc)+E(xc)   XCENC  =      4081.03501628
  PAW double counting   =    169343.56710274  -196251.42049780
  entropy T*S    EENTRO =        -0.00000000
  eigenvalues    EBANDS =    -12372.93924063
  atomic energy  EATOM  =    172755.47663999
  Solvation  Ediel_sol  =         0.00000000
  ---------------------------------------------------
  free energy    TOTEN  =      -633.20280332 eV

  energy without entropy =     -633.20280332  energy(sigma->0) =     -633.20280332


--------------------------------------------------------------------------------------------------------




--------------------------------------- Iteration      1(  15)  ---------------------------------------


    POTLOK:  cpu time      0.2236: real time      0.2275
    SETDIJ:  cpu time      0.0147: real time      0.0147
     EDDAV:  cpu time     65.1345: real time     65.4084
       DOS:  cpu time      0.0021: real time      0.0021
    CHARGE:  cpu time      1.7364: real time      1.7449
    MIXING:  cpu time      0.0041: real time      0.0041
    --------------------------------------------
      LOOP:  cpu time     67.1153: real time     67.4016

 eigenvalue-minimisations  : 18192
 total energy-change (2. order) :-0.2423534E-05  (-0.1864328E-05)
 number of electron    1151.9999763 magnetization 
 augmentation part      524.7609932 magnetization 

 Broyden mixing:
  rms(total) = 0.31881E-03    rms(broyden)= 0.31880E-03
  rms(prec ) = 0.32408E-03
  weight for this iteration     100.00

 eigenvalues of (default mixing * dielectric matrix)
  average eigenvalue GAMMA=   1.5632
  3.2301  2.5714  2.0567  2.0567  1.1772  1.1183  1.1183  0.8680  0.8680  0.5673

 Free energy of the ion-electron system (eV)
  ---------------------------------------------------
  alpha Z        PSCENC =      2970.02515869
  Ewald energy   TEWEN  =    -87406.15972304
  -Hartree energ DENC   =    -53752.76511100
  -exchange      EXHF   =         0.00000000
  -V(xc)+E(xc)   XCENC  =      4081.03497642
  PAW double counting   =    169346.45189684  -196254.24743492
  entropy T*S    EENTRO =        -0.00000000
  eigenvalues    EBANDS =    -12373.01920872
  atomic energy  EATOM  =    172755.47663999
  Solvation  Ediel_sol  =         0.00000000
  ---------------------------------------------------
  free energy    TOTEN  =      -633.20280575 eV

  energy without entropy =     -633.20280575  energy(sigma->0) =     -633.20280575


--------------------------------------------------------------------------------------------------------




--------------------------------------- Iteration      1(  16)  ---------------------------------------


    POTLOK:  cpu time      0.2370: real time      0.2395
    SETDIJ:  cpu time      0.0142: real time      0.0143
     EDDAV:  cpu time     60.0991: real time     60.3488
       DOS:  cpu time      0.0017: real time      0.0018
    CHARGE:  cpu time      1.7665: real time      1.7752
    MIXING:  cpu time      0.0038: real time      0.0038
    --------------------------------------------
      LOOP:  cpu time     62.1225: real time     62.3834

 eigenvalue-minimisations  : 16272
 total energy-change (2. order) :-0.1344597E-06  (-0.8428065E-06)
 number of electron    1151.9999763 magnetization 
 augmentation part      524.7609631 magnetization 

 Broyden mixing:
  rms(total) = 0.20298E-03    rms(broyden)= 0.20297E-03
  rms(prec ) = 0.21452E-03
  weight for this iteration     100.00

 eigenvalues of (default mixing * dielectric matrix)
  average eigenvalue GAMMA=   1.5151
  3.1540  2.5547  2.2777  2.2777  1.2416  1.2416  1.1181  0.9348  0.8790  0.5846
  0.4028

 Free energy of the ion-electron system (eV)
  ---------------------------------------------------
  alpha Z        PSCENC =      2970.02515869
  Ewald energy   TEWEN  =    -87406.15972304
  -Hartree energ DENC   =    -53752.75544672
  -exchange      EXHF   =         0.00000000
  -V(xc)+E(xc)   XCENC  =      4081.03444444
  PAW double counting   =    169349.08577905  -196256.88814712
  entropy T*S    EENTRO =        -0.00000000
  eigenvalues    EBANDS =    -12373.02151116
  atomic energy  EATOM  =    172755.47663999
  Solvation  Ediel_sol  =         0.00000000
  ---------------------------------------------------
  free energy    TOTEN  =      -633.20280588 eV

  energy without entropy =     -633.20280588  energy(sigma->0) =     -633.20280588


--------------------------------------------------------------------------------------------------------




--------------------------------------- Iteration      1(  17)  ---------------------------------------


    POTLOK:  cpu time      0.2237: real time      0.2269
    SETDIJ:  cpu time      0.0141: real time      0.0142
     EDDAV:  cpu time     52.9007: real time     53.1225
       DOS:  cpu time      0.0020: real time      0.0020
    CHARGE:  cpu time      1.7785: real time      1.7873
    MIXING:  cpu time      0.0042: real time      0.0042
    --------------------------------------------
      LOOP:  cpu time     54.9232: real time     55.1570

 eigenvalue-minimisations  : 13488
 total energy-change (2. order) : 0.1156586E-06  (-0.3233635E-07)
 number of electron    1151.9999763 magnetization 
 augmentation part      524.7609687 magnetization 

 Broyden mixing:
  rms(total) = 0.10044E-03    rms(broyden)= 0.10044E-03
  rms(prec ) = 0.10912E-03
  weight for this iteration     100.00

 eigenvalues of (default mixing * dielectric matrix)
  average eigenvalue GAMMA=   1.5660
  3.2610  2.6818  2.5890  2.3489  1.5672  1.1565  1.1565  1.1142  0.9571  0.8110
  0.6355  0.5128

 Free energy of the ion-electron system (eV)
  ---------------------------------------------------
  alpha Z        PSCENC =      2970.02515869
  Ewald energy   TEWEN  =    -87406.15972304
  -Hartree energ DENC   =    -53752.74788372
  -exchange      EXHF   =         0.00000000
  -V(xc)+E(xc)   XCENC  =      4081.03411894
  PAW double counting   =    169350.57480230  -196258.38265983
  entropy T*S    EENTRO =        -0.00000000
  eigenvalues    EBANDS =    -12373.02325909
  atomic energy  EATOM  =    172755.47663999
  Solvation  Ediel_sol  =         0.00000000
  ---------------------------------------------------
  free energy    TOTEN  =      -633.20280576 eV

  energy without entropy =     -633.20280576  energy(sigma->0) =     -633.20280576


--------------------------------------------------------------------------------------------------------




--------------------------------------- Iteration      1(  18)  ---------------------------------------


    POTLOK:  cpu time      0.2288: real time      0.2305
    SETDIJ:  cpu time      0.0143: real time      0.0143
     EDDAV:  cpu time     78.9889: real time     79.3533
       DOS:  cpu time      0.0021: real time      0.0021
    CHARGE:  cpu time      1.7609: real time      1.7705
    MIXING:  cpu time      0.0039: real time      0.0039
    --------------------------------------------
      LOOP:  cpu time     80.9989: real time     81.3746

 eigenvalue-minimisations  : 23408
 total energy-change (2. order) : 0.2337038E-07  (-0.2094082E-07)
 number of electron    1151.9999763 magnetization 
 augmentation part      524.7609534 magnetization 

 Broyden mixing:
  rms(total) = 0.44494E-04    rms(broyden)= 0.44494E-04
  rms(prec ) = 0.46468E-04
  weight for this iteration     100.00

 eigenvalues of (default mixing * dielectric matrix)
  average eigenvalue GAMMA=   1.4458
  3.2607  2.6821  2.5896  2.3489  1.5673  1.1564  1.1564  1.1145  0.9569  0.8110
  0.6356  0.5128  0.0029

 Free energy of the ion-electron system (eV)
  ---------------------------------------------------
  alpha Z        PSCENC =      2970.02515869
  Ewald energy   TEWEN  =    -87406.15972304
  -Hartree energ DENC   =    -53752.74574650
  -exchange      EXHF   =         0.00000000
  -V(xc)+E(xc)   XCENC  =      4081.03419252
  PAW double counting   =    169351.39628642  -196259.20747773
  entropy T*S    EENTRO =        -0.00000000
  eigenvalues    EBANDS =    -12373.02213608
  atomic energy  EATOM  =    172755.47663999
  Solvation  Ediel_sol  =         0.00000000
  ---------------------------------------------------
  free energy    TOTEN  =      -633.20280574 eV

  energy without entropy =     -633.20280574  energy(sigma->0) =     -633.20280574


--------------------------------------------------------------------------------------------------------




--------------------------------------- Iteration      1(  19)  ---------------------------------------


    POTLOK:  cpu time      0.2269: real time      0.2283
    SETDIJ:  cpu time      0.0145: real time      0.0145
     EDDAV:  cpu time     51.6004: real time     51.8161
       DOS:  cpu time      0.0024: real time      0.0024
    CHARGE:  cpu time      1.8051: real time      1.8140
    MIXING:  cpu time      0.0046: real time      0.0046
    --------------------------------------------
      LOOP:  cpu time     53.6539: real time     53.8799

 eigenvalue-minimisations  : 12976
 total energy-change (2. order) :-0.7171184E-07  (-0.7116389E-07)
 number of electron    1151.9999763 magnetization 
 augmentation part      524.7609487 magnetization 

 Broyden mixing:
  rms(total) = 0.55077E-04    rms(broyden)= 0.55075E-04
  rms(prec ) = 0.58522E-04
  weight for this iteration     100.00

 eigenvalues of (default mixing * dielectric matrix)
  average eigenvalue GAMMA=   1.3563
  3.2735  2.5993  2.4398  2.4398  1.5415  1.1430  1.1430  1.1243  0.9784  0.8342
  0.6311  0.5177  0.2750  0.0475

 Free energy of the ion-electron system (eV)
  ---------------------------------------------------
  alpha Z        PSCENC =      2970.02515869
  Ewald energy   TEWEN  =    -87406.15972304
  -Hartree energ DENC   =    -53752.74571026
  -exchange      EXHF   =         0.00000000
  -V(xc)+E(xc)   XCENC  =      4081.03419107
  PAW double counting   =    169351.39846891  -196259.20968725
  entropy T*S    EENTRO =        -0.00000000
  eigenvalues    EBANDS =    -12373.02214392
  atomic energy  EATOM  =    172755.47663999
  Solvation  Ediel_sol  =         0.00000000
  ---------------------------------------------------
  free energy    TOTEN  =      -633.20280581 eV

  energy without entropy =     -633.20280581  energy(sigma->0) =     -633.20280581


--------------------------------------------------------------------------------------------------------




--------------------------------------- Iteration      1(  20)  ---------------------------------------


    POTLOK:  cpu time      0.2301: real time      0.2322
    SETDIJ:  cpu time      0.0144: real time      0.0144
     EDDAV:  cpu time     40.4094: real time     40.5797
       DOS:  cpu time      0.0022: real time      0.0022
    --------------------------------------------
      LOOP:  cpu time     40.6560: real time     40.8285

 eigenvalue-minimisations  :  8624
 total energy-change (2. order) :-0.7130438E-08  (-0.8856210E-09)
 number of electron    1151.9999763 magnetization 
 augmentation part      524.7609487 magnetization 

 Free energy of the ion-electron system (eV)
  ---------------------------------------------------
  alpha Z        PSCENC =      2970.02515869
  Ewald energy   TEWEN  =    -87406.15972304
  -Hartree energ DENC   =    -53752.74649938
  -exchange      EXHF   =         0.00000000
  -V(xc)+E(xc)   XCENC  =      4081.03421918
  PAW double counting   =    169351.27999365  -196259.09096883
  entropy T*S    EENTRO =        -0.00000000
  eigenvalues    EBANDS =    -12373.02162608
  atomic energy  EATOM  =    172755.47663999
  Solvation  Ediel_sol  =         0.00000000
  ---------------------------------------------------
  free energy    TOTEN  =      -633.20280582 eV

  energy without entropy =     -633.20280582  energy(sigma->0) =     -633.20280582


--------------------------------------------------------------------------------------------------------




 average (electrostatic) potential at core
  the test charge radii are     0.9892  0.9911
  (the norm of the test charge is              1.0000)
       1 -84.4577       2 -84.4581       3 -84.4573       4 -84.4576       5 -84.4577
       6 -84.4577       7 -84.4577       8 -84.4577       9 -84.4573      10 -84.4581
      11 -84.4577      12 -84.4576      13 -84.4577      14 -84.4580      15 -84.4577
      16 -84.4574      17 -84.4577      18 -84.4577      19 -84.4577      20 -84.4577
      21 -84.4565      22 -84.4588      23 -84.4576      24 -84.4578      25 -84.4577
      26 -84.4587      27 -84.4577      28 -84.4567      29 -84.4577      30 -84.4588
      31 -84.4566      32 -84.4576      33 -84.4573      34 -84.4581      35 -84.4577
      36 -84.4576      37 -84.4577      38 -84.4587      39 -84.4577      40 -84.4567
      41 -84.4577      42 -84.4580      43 -84.4574      44 -84.4576      45 -84.4577
      46 -84.4577      47 -84.4577      48 -84.4577      49 -84.4577      50 -84.4580
      51 -84.4577      52 -84.4574      53 -84.4577      54 -84.4588      55 -84.4566
      56 -84.4576      57 -84.4577      58 -84.4577      59 -84.4577      60 -84.4577
      61 -84.4574      62 -84.4579      63 -84.4577      64 -84.4576      65 -73.8563
      66 -73.8559      67 -73.8562      68 -73.8562      69 -73.8575      70 -73.8563
      71 -73.8560      72 -73.8548      73 -73.8569      74 -73.8562      75 -73.8553
      76 -73.8561      77 -73.8576      78 -73.8547      79 -73.8561      80 -73.8562
      81 -73.8575      82 -73.8563      83 -73.8560      84 -73.8548      85 -73.8565
      86 -73.8561      87 -73.8558      88 -73.8561      89 -73.8564      90 -73.8559
      91 -73.8561      92 -73.8562      93 -73.8561      94 -73.8562      95 -73.8562
      96 -73.8561      97 -73.8569      98 -73.8562      99 -73.8553     100 -73.8561
     101 -73.8564     102 -73.8559     103 -73.8561     104 -73.8562     105 -73.8561
     106 -73.8561     107 -73.8561     108 -73.8560     109 -73.8565     110 -73.8562
     111 -73.8560     112 -73.8559     113 -73.8576     114 -73.8547     115 -73.8561
     116 -73.8562     117 -73.8561     118 -73.8562     119 -73.8562     120 -73.8561
     121 -73.8565     122 -73.8562     123 -73.8560     124 -73.8559     125 -73.8564
     126 -73.8561     127 -73.8559     128 -73.8562
 
 
 
 E-fermi :   5.2145     XC(G=0):  -9.5684     alpha+bet :-10.8470

 val. band max:        5.1107859581   @ k =   0.0000   0.0000   0.0000
 cond. band min:       5.7216905478   @ k =   0.3333   0.3333   0.0000
 fundamental gap:      0.6109045897
 Fermi energy:         5.2145086378

 k-point     1 :       0.0000    0.0000    0.0000
  band No.  band energies     occupation 
      1     -19.2242      2.00000
      2     -19.2242      2.00000
      3     -19.2242      2.00000
      4     -19.2212      2.00000
      5     -19.2212      2.00000
      6     -19.2211      2.00000
      7     -19.2211      2.00000
      8     -19.2211      2.00000
      9     -19.2211      2.00000
     10     -19.2204      2.00000
     11     -19.2204      2.00000
     12     -19.2203      2.00000
     13     -19.2203      2.00000
     14     -19.2203      2.00000
     15     -19.2202      2.00000
     16     -19.2202      2.00000
     17     -19.2202      2.00000
     18     -19.2201      2.00000
     19     -19.2201      2.00000
     20     -19.2201      2.00000
     21     -19.2201      2.00000
     22     -19.2201      2.00000
     23     -19.2201      2.00000
     24     -19.2200      2.00000
     25     -19.2200      2.00000
     26     -19.2200      2.00000
     27     -19.2200      2.00000
     28     -19.2199      2.00000
     29     -19.2199      2.00000
     30     -19.2199      2.00000
     31     -19.2199      2.00000
     32     -19.2198      2.00000
     33     -19.2198      2.00000
     34     -19.2189      2.00000
     35     -19.2189      2.00000
     36     -19.2188      2.00000
     37     -19.2188      2.00000
     38     -19.2188      2.00000
     39     -19.2187      2.00000
     40     -19.2184      2.00000
     41     -19.2181      2.00000
     42     -19.2181      2.00000
     43     -19.2181      2.00000
     44     -19.2181      2.00000
     45     -19.2179      2.00000
     46     -19.2179      2.00000
     47     -19.2179      2.00000
     48     -19.2179      2.00000
     49     -19.2179      2.00000
     50     -19.2178      2.00000
     51     -19.2178      2.00000
     52     -19.2177      2.00000
     53     -19.2177      2.00000
     54     -19.2177      2.00000
     55     -19.2177      2.00000
     56     -19.2176      2.00000
     57     -19.2176      2.00000
     58     -19.2176      2.00000
     59     -19.2176      2.00000
     60     -19.2175      2.00000
     61     -19.2175      2.00000
     62     -19.2174      2.00000
     63     -19.2174      2.00000
     64     -19.2174      2.00000
     65     -19.2173      2.00000
     66     -19.2173      2.00000
     67     -19.2156      2.00000
     68     -19.2156      2.00000
     69     -19.2156      2.00000
     70     -19.2155      2.00000
     71     -19.2154      2.00000
     72     -19.2154      2.00000
     73     -19.2154      2.00000
     74     -19.2154      2.00000
     75     -19.2154      2.00000
     76     -19.2153      2.00000
     77     -19.2153      2.00000
     78     -19.2153      2.00000
     79     -19.2152      2.00000
     80     -19.2152      2.00000
     81     -19.2152      2.00000
     82     -19.2151      2.00000
     83     -19.2134      2.00000
     84     -19.2134      2.00000
     85     -19.2134      2.00000
     86     -19.2134      2.00000
     87     -19.2133      2.00000
     88     -19.2133      2.00000
     89     -19.2133      2.00000
     90     -19.2133      2.00000
     91     -19.2133      2.00000
     92     -19.2132      2.00000
     93     -19.2132      2.00000
     94     -19.2132      2.00000
     95     -19.2132      2.00000
     96     -19.2132      2.00000
     97     -19.2132      2.00000
     98     -19.2132      2.00000
     99     -19.2131      2.00000
    100     -19.2131      2.00000
    101     -19.2131      2.00000
    102     -19.2131      2.00000
    103     -19.2129      2.00000
    104     -19.2128      2.00000
    105     -19.2128      2.00000
    106     -19.2128      2.00000
    107     -19.2128      2.00000
    108     -19.2127      2.00000
    109     -19.2127      2.00000
    110     -19.2127      2.00000
    111     -19.2127      2.00000
    112     -19.2126      2.00000
    113     -19.2126      2.00000
    114     -19.2126      2.00000
    115     -19.2126      2.00000
    116     -19.2126      2.00000
    117     -19.2126      2.00000
    118     -19.2126      2.00000
    119     -19.2126      2.00000
    120     -19.2125      2.00000
    121     -19.2124      2.00000
    122     -19.2124      2.00000
    123     -19.2124      2.00000
    124     -19.2123      2.00000
    125     -19.2123      2.00000
    126     -19.2123      2.00000
    127     -19.2123      2.00000
    128     -19.2123      2.00000
    129     -19.2122      2.00000
    130     -19.2122      2.00000
    131     -19.2122      2.00000
    132     -19.2121      2.00000
    133     -19.2113      2.00000
    134     -19.2113      2.00000
    135     -19.2112      2.00000
    136     -19.2112      2.00000
    137     -19.2112      2.00000
    138     -19.2112      2.00000
    139     -19.2111      2.00000
    140     -19.2111      2.00000
    141     -19.2110      2.00000
    142     -19.2110      2.00000
    143     -19.2110      2.00000
    144     -19.2110      2.00000
    145     -19.2110      2.00000
    146     -19.2110      2.00000
    147     -19.2110      2.00000
    148     -19.2109      2.00000
    149     -19.2109      2.00000
    150     -19.2108      2.00000
    151     -19.2108      2.00000
    152     -19.2108      2.00000
    153     -19.2107      2.00000
    154     -19.2107      2.00000
    155     -19.2107      2.00000
    156     -19.2106      2.00000
    157     -19.2103      2.00000
    158     -19.2103      2.00000
    159     -19.2102      2.00000
    160     -19.2102      2.00000
    161     -19.2101      2.00000
    162     -19.2101      2.00000
    163     -19.2101      2.00000
    164     -19.2101      2.00000
    165     -19.2101      2.00000
    166     -19.2101      2.00000
    167     -19.2100      2.00000
    168     -19.2100      2.00000
    169     -19.2100      2.00000
    170     -19.2100      2.00000
    171     -19.2099      2.00000
    172     -19.2099      2.00000
    173     -19.2099      2.00000
    174     -19.2099      2.00000
    175     -19.2098      2.00000
    176     -19.2098      2.00000
    177     -19.2098      2.00000
    178     -19.2097      2.00000
    179     -19.2097      2.00000
    180     -19.2096      2.00000
    181     -19.2072      2.00000
    182     -19.2072      2.00000
    183     -19.2072      2.00000
    184     -19.2072      2.00000
    185     -19.2072      2.00000
    186     -19.2072      2.00000
    187     -19.2072      2.00000
    188     -19.2072      2.00000
    189     -19.2072      2.00000
    190     -19.2071      2.00000
    191     -19.2071      2.00000
    192     -19.2071      2.00000
    193     -19.1964      2.00000
    194     -19.1964      2.00000
    195     -19.1963      2.00000
    196     -19.1948      2.00000
    197     -19.1947      2.00000
    198     -19.1946      2.00000
    199     -19.1946      2.00000
    200     -19.1945      2.00000
    201     -19.1944      2.00000
    202     -19.1944      2.00000
    203     -19.1943      2.00000
    204     -19.1943      2.00000
    205     -19.1943      2.00000
    206     -19.1942      2.00000
    207     -19.1942      2.00000
    208     -19.1941      2.00000
    209     -19.1941      2.00000
    210     -19.1940      2.00000
    211     -19.1940      2.00000
    212     -19.1940      2.00000
    213     -19.1940      2.00000
    214     -19.1940      2.00000
    215     -19.1939      2.00000
    216     -19.1939      2.00000
    217     -19.1939      2.00000
    218     -19.1939      2.00000
    219     -19.1939      2.00000
    220     -19.1939      2.00000
    221     -19.1938      2.00000
    222     -19.1938      2.00000
    223     -19.1938      2.00000
    224     -19.1938      2.00000
    225     -19.1937      2.00000
    226     -19.1937      2.00000
    227     -19.1936      2.00000
    228     -19.1936      2.00000
    229     -19.1936      2.00000
    230     -19.1936      2.00000
    231     -19.1935      2.00000
    232     -19.1927      2.00000
    233     -19.1926      2.00000
    234     -19.1925      2.00000
    235     -19.1923      2.00000
    236     -19.1923      2.00000
    237     -19.1922      2.00000
    238     -19.1922      2.00000
    239     -19.1922      2.00000
    240     -19.1921      2.00000
    241     -19.1921      2.00000
    242     -19.1921      2.00000
    243     -19.1920      2.00000
    244     -19.1920      2.00000
    245     -19.1920      2.00000
    246     -19.1920      2.00000
    247     -19.1920      2.00000
    248     -19.1920      2.00000
    249     -19.1919      2.00000
    250     -19.1919      2.00000
    251     -19.1919      2.00000
    252     -19.1919      2.00000
    253     -19.1919      2.00000
    254     -19.1919      2.00000
    255     -19.1918      2.00000
    256     -19.1918      2.00000
    257     -19.1918      2.00000
    258     -19.1918      2.00000
    259     -19.1917      2.00000
    260     -19.1917      2.00000
    261     -19.1917      2.00000
    262     -19.1916      2.00000
    263     -19.1915      2.00000
    264     -19.1915      2.00000
    265     -19.1915      2.00000
    266     -19.1915      2.00000
    267     -19.1915      2.00000
    268     -19.1914      2.00000
    269     -19.1914      2.00000
    270     -19.1914      2.00000
    271     -19.1913      2.00000
    272     -19.1913      2.00000
    273     -19.1913      2.00000
    274     -19.1912      2.00000
    275     -19.1911      2.00000
    276     -19.1911      2.00000
    277     -19.1911      2.00000
    278     -19.1911      2.00000
    279     -19.1911      2.00000
    280     -19.1911      2.00000
    281     -19.1909      2.00000
    282     -19.1903      2.00000
    283     -19.1903      2.00000
    284     -19.1903      2.00000
    285     -19.1902      2.00000
    286     -19.1901      2.00000
    287     -19.1901      2.00000
    288     -19.1901      2.00000
    289     -19.1901      2.00000
    290     -19.1900      2.00000
    291     -19.1900      2.00000
    292     -19.1900      2.00000
    293     -19.1899      2.00000
    294     -19.1899      2.00000
    295     -19.1898      2.00000
    296     -19.1898      2.00000
    297     -19.1898      2.00000
    298     -19.1898      2.00000
    299     -19.1897      2.00000
    300     -19.1897      2.00000
    301     -19.1897      2.00000
    302     -19.1897      2.00000
    303     -19.1897      2.00000
    304     -19.1897      2.00000
    305     -19.1897      2.00000
    306     -19.1897      2.00000
    307     -19.1896      2.00000
    308     -19.1896      2.00000
    309     -19.1895      2.00000
    310     -19.1895      2.00000
    311     -19.1894      2.00000
    312     -19.1893      2.00000
    313     -19.1893      2.00000
    314     -19.1892      2.00000
    315     -19.1892      2.00000
    316     -19.1891      2.00000
    317     -19.1890      2.00000
    318     -19.1878      2.00000
    319     -19.1878      2.00000
    320     -19.1878      2.00000
    321      -7.0785      2.00000
    322      -6.3350      2.00000
    323      -6.3340      2.00000
    324      -6.3339      2.00000
    325      -6.3339      2.00000
    326      -6.3339      2.00000
    327      -6.3339      2.00000
    328      -6.3338      2.00000
    329      -6.3328      2.00000
    330      -6.0684      2.00000
    331      -6.0675      2.00000
    332      -6.0675      2.00000
    333      -6.0675      2.00000
    334      -6.0675      2.00000
    335      -6.0666      2.00000
    336      -5.1937      2.00000
    337      -5.1919      2.00000
    338      -5.1919      2.00000
    339      -5.1918      2.00000
    340      -5.1918      2.00000
    341      -5.1917      2.00000
    342      -5.1917      2.00000
    343      -5.1917      2.00000
    344      -5.1917      2.00000
    345      -5.1916      2.00000
    346      -5.1916      2.00000
    347      -5.1898      2.00000
    348      -4.9751      2.00000
    349      -4.9745      2.00000
    350      -4.9745      2.00000
    351      -4.9740      2.00000
    352      -4.5909      2.00000
    353      -4.5875      2.00000
    354      -4.5874      2.00000
    355      -4.5873      2.00000
    356      -4.5872      2.00000
    357      -4.5871      2.00000
    358      -4.5871      2.00000
    359      -4.5871      2.00000
    360      -4.5871      2.00000
    361      -4.5871      2.00000
    362      -4.5870      2.00000
    363      -4.5870      2.00000
    364      -4.5870      2.00000
    365      -4.5870      2.00000
    366      -4.5870      2.00000
    367      -4.5870      2.00000
    368      -4.5870      2.00000
    369      -4.5870      2.00000
    370      -4.5869      2.00000
    371      -4.5869      2.00000
    372      -4.5868      2.00000
    373      -4.5867      2.00000
    374      -4.5866      2.00000
    375      -4.5832      2.00000
    376      -3.5628      2.00000
    377      -3.5628      2.00000
    378      -3.5628      2.00000
    379      -3.4742      2.00000
    380      -3.4741      2.00000
    381      -3.4740      2.00000
    382      -3.4740      2.00000
    383      -3.4740      2.00000
    384      -3.4739      2.00000
    385      -2.7385      2.00000
    386      -2.7380      2.00000
    387      -2.7376      2.00000
    388      -2.5879      2.00000
    389      -2.5869      2.00000
    390      -2.5869      2.00000
    391      -2.5869      2.00000
    392      -2.5868      2.00000
    393      -2.5858      2.00000
    394      -1.9890      2.00000
    395      -1.9884      2.00000
    396      -1.9884      2.00000
    397      -1.9877      2.00000
    398      -1.6363      2.00000
    399      -1.6325      2.00000
    400      -1.6322      2.00000
    401      -1.6321      2.00000
    402      -1.6321      2.00000
    403      -1.6320      2.00000
    404      -1.6320      2.00000
    405      -1.6320      2.00000
    406      -1.6319      2.00000
    407      -1.6319      2.00000
    408      -1.6319      2.00000
    409      -1.6319      2.00000
    410      -1.6319      2.00000
    411      -1.6319      2.00000
    412      -1.6318      2.00000
    413      -1.6318      2.00000
    414      -1.6318      2.00000
    415      -1.6318      2.00000
    416      -1.6317      2.00000
    417      -1.6317      2.00000
    418      -1.6316      2.00000
    419      -1.6315      2.00000
    420      -1.6313      2.00000
    421      -1.6275      2.00000
    422      -0.7973      2.00000
    423      -0.7954      2.00000
    424      -0.7953      2.00000
    425      -0.7953      2.00000
    426      -0.7953      2.00000
    427      -0.7952      2.00000
    428      -0.7952      2.00000
    429      -0.7951      2.00000
    430      -0.7951      2.00000
    431      -0.7951      2.00000
    432      -0.7949      2.00000
    433      -0.7931      2.00000
    434       0.8764      2.00000
    435       0.8772      2.00000
    436       0.8776      2.00000
    437       0.8776      2.00000
    438       0.8776      2.00000
    439       0.8776      2.00000
    440       0.8780      2.00000
    441       0.8788      2.00000
    442       1.0276      2.00000
    443       1.0286      2.00000
    444       1.0287      2.00000
    445       1.0287      2.00000
    446       1.0288      2.00000
    447       1.0298      2.00000
    448       1.3206      2.00000
    449       1.3207      2.00000
    450       1.3208      2.00000
    451       1.3208      2.00000
    452       1.3208      2.00000
    453       1.3209      2.00000
    454       1.3866      2.00000
    455       1.3868      2.00000
    456       1.3873      2.00000
    457       1.3873      2.00000
    458       1.3878      2.00000
    459       1.3879      2.00000
    460       1.4139      2.00000
    461       1.4141      2.00000
    462       1.4142      2.00000
    463       1.4148      2.00000
    464       1.4148      2.00000
    465       1.4148      2.00000
    466       1.4148      2.00000
    467       1.4149      2.00000
    468       1.4149      2.00000
    469       1.4155      2.00000
    470       1.4155      2.00000
    471       1.4157      2.00000
    472       1.5751      2.00000
    473       1.5754      2.00000
    474       1.5760      2.00000
    475       1.5769      2.00000
    476       1.5769      2.00000
    477       1.5770      2.00000
    478       1.5770      2.00000
    479       1.5770      2.00000
    480       1.5771      2.00000
    481       1.5771      2.00000
    482       1.5771      2.00000
    483       1.5771      2.00000
    484       1.5771      2.00000
    485       1.5771      2.00000
    486       1.5772      2.00000
    487       1.5772      2.00000
    488       1.5773      2.00000
    489       1.5773      2.00000
    490       1.5773      2.00000
    491       1.5773      2.00000
    492       1.5774      2.00000
    493       1.5783      2.00000
    494       1.5788      2.00000
    495       1.5792      2.00000
    496       2.2206      2.00000
    497       2.2209      2.00000
    498       2.2210      2.00000
    499       2.2210      2.00000
    500       2.2211      2.00000
    501       2.2215      2.00000
    502       2.8612      2.00000
    503       2.8628      2.00000
    504       2.8634      2.00000
    505       2.8634      2.00000
    506       2.8637      2.00000
    507       2.8637      2.00000
    508       2.8638      2.00000
    509       2.8638      2.00000
    510       2.8638      2.00000
    511       2.8638      2.00000
    512       2.8639      2.00000
    513       2.8639      2.00000
    514       2.8639      2.00000
    515       2.8639      2.00000
    516       2.8639      2.00000
    517       2.8639      2.00000
    518       2.8639      2.00000
    519       2.8639      2.00000
    520       2.8640      2.00000
    521       2.8640      2.00000
    522       2.8643      2.00000
    523       2.8643      2.00000
    524       2.8650      2.00000
    525       2.8665      2.00000
    526       3.1978      2.00000
    527       3.1990      2.00000
    528       3.1992      2.00000
    529       3.1994      2.00000
    530       3.1994      2.00000
    531       3.1994      2.00000
    532       3.1994      2.00000
    533       3.1994      2.00000
    534       3.1995      2.00000
    535       3.1996      2.00000
    536       3.1998      2.00000
    537       3.2010      2.00000
    538       3.7234      2.00000
    539       3.7245      2.00000
    540       3.7250      2.00000
    541       3.7251      2.00000
    542       3.7251      2.00000
    543       3.7252      2.00000
    544       3.7252      2.00000
    545       3.7253      2.00000
    546       3.7253      2.00000
    547       3.7254      2.00000
    548       3.7259      2.00000
    549       3.7269      2.00000
    550       3.8300      2.00000
    551       3.8310      2.00000
    552       3.8312      2.00000
    553       3.8312      2.00000
    554       3.8314      2.00000
    555       3.8314      2.00000
    556       3.8316      2.00000
    557       3.8326      2.00000
    558       4.3037      2.00000
    559       4.3063      2.00000
    560       4.3064      2.00000
    561       4.3065      2.00000
    562       4.3067      2.00000
    563       4.3067      2.00000
    564       4.3067      2.00000
    565       4.3067      2.00000
    566       4.3068      2.00000
    567       4.3068      2.00000
    568       4.3068      2.00000
    569       4.3068      2.00000
    570       4.3070      2.00000
    571       4.3071      2.00000
    572       4.3072      2.00000
    573       4.3098      2.00000
    574       5.1093      2.00000
    575       5.1100      2.00000
    576       5.1108      2.00000
    577       5.7775      0.00000
    578       5.7775      0.00000
    579       5.7775      0.00000
    580       5.8952      0.00000
    581       5.8955      0.00000
    582       5.8955      0.00000
    583       5.8958      0.00000
    584       6.0688      0.00000
    585       6.0695      0.00000
    586       6.0703      0.00000
    587       6.2156      0.00000
    588       6.2159      0.00000
    589       6.2164      0.00000
    590       6.2164      0.00000
    591       6.2168      0.00000
    592       6.2171      0.00000
    593       6.3901      0.00000
    594       6.3908      0.00000
    595       6.3909      0.00000
    596       6.3910      0.00000
    597       6.3910      0.00000
    598       6.3910      0.00000
    599       6.3911      0.00000
    600       6.3918      0.00000
    601       6.4717      0.00000
    602       6.6240      0.00000
    603       6.6249      0.00000
    604       6.6264      0.00000
    605       6.6266      0.00000
    606       6.6267      0.00000
    607       6.6267      0.00000
    608       6.6267      0.00000
    609       6.6268      0.00000
    610       6.6268      0.00000
    611       6.6268      0.00000
    612       6.6269      0.00000
    613       6.6269      0.00000
    614       6.6269      0.00000
    615       6.6269      0.00000
    616       6.6269      0.00000
    617       6.6269      0.00000
    618       6.6269      0.00000
    619       6.6270      0.00000
    620       6.6270      0.00000
    621       6.6271      0.00000
    622       6.6271      0.00000
    623       6.6273      0.00000
    624       6.6288      0.00000
    625       6.6297      0.00000
    626       7.3356      0.00000
    627       7.3360      0.00000
    628       7.3368      0.00000
    629       7.3369      0.00000
    630       7.3369      0.00000
    631       7.3370      0.00000
    632       7.3370      0.00000
    633       7.3370      0.00000
    634       7.3370      0.00000
    635       7.3372      0.00000
    636       7.3379      0.00000
    637       7.3384      0.00000
    638       7.6381      0.00000
    639       7.6386      0.00000
    640       7.6391      0.00000
    641       8.1262      0.00000
    642       8.1264      0.00000
    643       8.1268      0.00000
    644       8.1268      0.00000
    645       8.1272      0.00000
    646       8.1275      0.00000
    647       8.6363      0.00000
    648       8.6371      0.00000
    649       8.6384      0.00000
    650       8.6385      0.00000
    651       8.6386      0.00000
    652       8.6387      0.00000
    653       8.6387      0.00000
    654       8.6387      0.00000
    655       8.6387      0.00000
    656       8.6388      0.00000
    657       8.6388      0.00000
    658       8.6389      0.00000
    659       8.6390      0.00000
    660       8.6391      0.00000
    661       8.6401      0.00000
    662       8.6408      0.00000
    663       8.6547      0.00000
    664       8.6549      0.00000
    665       8.6557      0.00000
    666       8.6557      0.00000
    667       8.6557      0.00000
    668       8.6557      0.00000
    669       8.6567      0.00000
    670       8.6570      0.00000
    671       9.4191      0.00000
    672       9.4192      0.00000
    673       9.4194      0.00000
    674       9.4198      0.00000
    675       9.4213      0.00000
    676       9.4221      0.00000
    677       9.4823      0.00000
    678       9.4836      0.00000
    679       9.4841      0.00000
    680       9.4843      0.00000
    681       9.4845      0.00000
    682       9.4846      0.00000
    683       9.4846      0.00000
    684       9.4847      0.00000
    685       9.4847      0.00000
    686       9.4847      0.00000
    687       9.4847      0.00000
    688       9.4848      0.00000
    689       9.4848      0.00000
    690       9.4850      0.00000
    691       9.4851      0.00000
    692       9.4852      0.00000
    693       9.4856      0.00000
    694       9.4857      0.00000
    695       9.4866      0.00000
    696       9.4876      0.00000
    697       9.4892      0.00000
    698       9.4925      0.00000
    699       9.5048      0.00000
    700       9.5150      0.00000
    701       9.5425      0.00000
    702       9.5430      0.00000
    703       9.5449      0.00000
    704       9.5526      0.00000

 k-point     2 :       0.3333    0.0000    0.0000
  band No.  band energies     occupation 
      1     -19.2236      2.00000
      2     -19.2236      2.00000
      3     -19.2236      2.00000
      4     -19.2221      2.00000
      5     -19.2220      2.00000
      6     -19.2220      2.00000
      7     -19.2215      2.00000
      8     -19.2215      2.00000
      9     -19.2215      2.00000
     10     -19.2212      2.00000
     11     -19.2211      2.00000
     12     -19.2211      2.00000
     13     -19.2202      2.00000
     14     -19.2202      2.00000
     15     -19.2201      2.00000
     16     -19.2201      2.00000
     17     -19.2200      2.00000
     18     -19.2200      2.00000
     19     -19.2199      2.00000
     20     -19.2199      2.00000
     21     -19.2199      2.00000
     22     -19.2196      2.00000
     23     -19.2195      2.00000
     24     -19.2195      2.00000
     25     -19.2195      2.00000
     26     -19.2194      2.00000
     27     -19.2194      2.00000
     28     -19.2192      2.00000
     29     -19.2192      2.00000
     30     -19.2192      2.00000
     31     -19.2191      2.00000
     32     -19.2191      2.00000
     33     -19.2190      2.00000
     34     -19.2189      2.00000
     35     -19.2189      2.00000
     36     -19.2189      2.00000
     37     -19.2186      2.00000
     38     -19.2186      2.00000
     39     -19.2185      2.00000
     40     -19.2185      2.00000
     41     -19.2185      2.00000
     42     -19.2185      2.00000
     43     -19.2184      2.00000
     44     -19.2182      2.00000
     45     -19.2182      2.00000
     46     -19.2182      2.00000
     47     -19.2182      2.00000
     48     -19.2181      2.00000
     49     -19.2180      2.00000
     50     -19.2180      2.00000
     51     -19.2180      2.00000
     52     -19.2180      2.00000
     53     -19.2179      2.00000
     54     -19.2179      2.00000
     55     -19.2178      2.00000
     56     -19.2178      2.00000
     57     -19.2178      2.00000
     58     -19.2178      2.00000
     59     -19.2178      2.00000
     60     -19.2178      2.00000
     61     -19.2177      2.00000
     62     -19.2177      2.00000
     63     -19.2176      2.00000
     64     -19.2176      2.00000
     65     -19.2175      2.00000
     66     -19.2174      2.00000
     67     -19.2166      2.00000
     68     -19.2165      2.00000
     69     -19.2154      2.00000
     70     -19.2154      2.00000
     71     -19.2152      2.00000
     72     -19.2152      2.00000
     73     -19.2151      2.00000
     74     -19.2150      2.00000
     75     -19.2150      2.00000
     76     -19.2150      2.00000
     77     -19.2148      2.00000
     78     -19.2144      2.00000
     79     -19.2144      2.00000
     80     -19.2144      2.00000
     81     -19.2143      2.00000
     82     -19.2143      2.00000
     83     -19.2141      2.00000
     84     -19.2141      2.00000
     85     -19.2140      2.00000
     86     -19.2140      2.00000
     87     -19.2139      2.00000
     88     -19.2139      2.00000
     89     -19.2138      2.00000
     90     -19.2138      2.00000
     91     -19.2137      2.00000
     92     -19.2136      2.00000
     93     -19.2136      2.00000
     94     -19.2136      2.00000
     95     -19.2135      2.00000
     96     -19.2134      2.00000
     97     -19.2134      2.00000
     98     -19.2133      2.00000
     99     -19.2133      2.00000
    100     -19.2132      2.00000
    101     -19.2132      2.00000
    102     -19.2132      2.00000
    103     -19.2132      2.00000
    104     -19.2132      2.00000
    105     -19.2132      2.00000
    106     -19.2129      2.00000
    107     -19.2128      2.00000
    108     -19.2128      2.00000
    109     -19.2127      2.00000
    110     -19.2126      2.00000
    111     -19.2126      2.00000
    112     -19.2125      2.00000
    113     -19.2125      2.00000
    114     -19.2125      2.00000
    115     -19.2124      2.00000
    116     -19.2124      2.00000
    117     -19.2124      2.00000
    118     -19.2123      2.00000
    119     -19.2123      2.00000
    120     -19.2122      2.00000
    121     -19.2122      2.00000
    122     -19.2122      2.00000
    123     -19.2121      2.00000
    124     -19.2121      2.00000
    125     -19.2120      2.00000
    126     -19.2120      2.00000
    127     -19.2118      2.00000
    128     -19.2118      2.00000
    129     -19.2117      2.00000
    130     -19.2117      2.00000
    131     -19.2116      2.00000
    132     -19.2116      2.00000
    133     -19.2116      2.00000
    134     -19.2115      2.00000
    135     -19.2115      2.00000
    136     -19.2115      2.00000
    137     -19.2115      2.00000
    138     -19.2115      2.00000
    139     -19.2114      2.00000
    140     -19.2114      2.00000
    141     -19.2114      2.00000
    142     -19.2114      2.00000
    143     -19.2113      2.00000
    144     -19.2112      2.00000
    145     -19.2112      2.00000
    146     -19.2112      2.00000
    147     -19.2111      2.00000
    148     -19.2111      2.00000
    149     -19.2111      2.00000
    150     -19.2110      2.00000
    151     -19.2110      2.00000
    152     -19.2110      2.00000
    153     -19.2109      2.00000
    154     -19.2108      2.00000
    155     -19.2108      2.00000
    156     -19.2108      2.00000
    157     -19.2106      2.00000
    158     -19.2106      2.00000
    159     -19.2105      2.00000
    160     -19.2105      2.00000
    161     -19.2105      2.00000
    162     -19.2104      2.00000
    163     -19.2104      2.00000
    164     -19.2103      2.00000
    165     -19.2103      2.00000
    166     -19.2102      2.00000
    167     -19.2102      2.00000
    168     -19.2101      2.00000
    169     -19.2091      2.00000
    170     -19.2091      2.00000
    171     -19.2091      2.00000
    172     -19.2088      2.00000
    173     -19.2088      2.00000
    174     -19.2088      2.00000
    175     -19.2088      2.00000
    176     -19.2087      2.00000
    177     -19.2087      2.00000
    178     -19.2086      2.00000
    179     -19.2086      2.00000
    180     -19.2085      2.00000
    181     -19.2077      2.00000
    182     -19.2077      2.00000
    183     -19.2077      2.00000
    184     -19.2076      2.00000
    185     -19.2076      2.00000
    186     -19.2076      2.00000
    187     -19.2076      2.00000
    188     -19.2076      2.00000
    189     -19.2075      2.00000
    190     -19.2075      2.00000
    191     -19.2075      2.00000
    192     -19.2074      2.00000
    193     -19.1962      2.00000
    194     -19.1961      2.00000
    195     -19.1961      2.00000
    196     -19.1952      2.00000
    197     -19.1952      2.00000
    198     -19.1952      2.00000
    199     -19.1948      2.00000
    200     -19.1948      2.00000
    201     -19.1947      2.00000
    202     -19.1946      2.00000
    203     -19.1946      2.00000
    204     -19.1945      2.00000
    205     -19.1944      2.00000
    206     -19.1944      2.00000
    207     -19.1944      2.00000
    208     -19.1943      2.00000
    209     -19.1943      2.00000
    210     -19.1942      2.00000
    211     -19.1941      2.00000
    212     -19.1940      2.00000
    213     -19.1940      2.00000
    214     -19.1940      2.00000
    215     -19.1940      2.00000
    216     -19.1939      2.00000
    217     -19.1936      2.00000
    218     -19.1936      2.00000
    219     -19.1935      2.00000
    220     -19.1935      2.00000
    221     -19.1934      2.00000
    222     -19.1934      2.00000
    223     -19.1934      2.00000
    224     -19.1933      2.00000
    225     -19.1933      2.00000
    226     -19.1932      2.00000
    227     -19.1932      2.00000
    228     -19.1931      2.00000
    229     -19.1929      2.00000
    230     -19.1929      2.00000
    231     -19.1928      2.00000
    232     -19.1928      2.00000
    233     -19.1927      2.00000
    234     -19.1927      2.00000
    235     -19.1927      2.00000
    236     -19.1927      2.00000
    237     -19.1926      2.00000
    238     -19.1926      2.00000
    239     -19.1926      2.00000
    240     -19.1926      2.00000
    241     -19.1925      2.00000
    242     -19.1925      2.00000
    243     -19.1924      2.00000
    244     -19.1924      2.00000
    245     -19.1923      2.00000
    246     -19.1923      2.00000
    247     -19.1923      2.00000
    248     -19.1922      2.00000
    249     -19.1922      2.00000
    250     -19.1921      2.00000
    251     -19.1921      2.00000
    252     -19.1920      2.00000
    253     -19.1920      2.00000
    254     -19.1916      2.00000
    255     -19.1916      2.00000
    256     -19.1915      2.00000
    257     -19.1915      2.00000
    258     -19.1915      2.00000
    259     -19.1915      2.00000
    260     -19.1914      2.00000
    261     -19.1914      2.00000
    262     -19.1914      2.00000
    263     -19.1914      2.00000
    264     -19.1913      2.00000
    265     -19.1913      2.00000
    266     -19.1913      2.00000
    267     -19.1912      2.00000
    268     -19.1912      2.00000
    269     -19.1912      2.00000
    270     -19.1912      2.00000
    271     -19.1911      2.00000
    272     -19.1911      2.00000
    273     -19.1910      2.00000
    274     -19.1910      2.00000
    275     -19.1910      2.00000
    276     -19.1909      2.00000
    277     -19.1909      2.00000
    278     -19.1908      2.00000
    279     -19.1908      2.00000
    280     -19.1908      2.00000
    281     -19.1907      2.00000
    282     -19.1907      2.00000
    283     -19.1907      2.00000
    284     -19.1906      2.00000
    285     -19.1905      2.00000
    286     -19.1904      2.00000
    287     -19.1904      2.00000
    288     -19.1904      2.00000
    289     -19.1903      2.00000
    290     -19.1903      2.00000
    291     -19.1902      2.00000
    292     -19.1902      2.00000
    293     -19.1901      2.00000
    294     -19.1901      2.00000
    295     -19.1900      2.00000
    296     -19.1899      2.00000
    297     -19.1899      2.00000
    298     -19.1899      2.00000
    299     -19.1898      2.00000
    300     -19.1898      2.00000
    301     -19.1898      2.00000
    302     -19.1898      2.00000
    303     -19.1897      2.00000
    304     -19.1897      2.00000
    305     -19.1896      2.00000
    306     -19.1896      2.00000
    307     -19.1895      2.00000
    308     -19.1895      2.00000
    309     -19.1894      2.00000
    310     -19.1894      2.00000
    311     -19.1894      2.00000
    312     -19.1893      2.00000
    313     -19.1891      2.00000
    314     -19.1891      2.00000
    315     -19.1888      2.00000
    316     -19.1887      2.00000
    317     -19.1887      2.00000
    318     -19.1881      2.00000
    319     -19.1881      2.00000
    320     -19.1880      2.00000
    321      -6.9934      2.00000
    322      -6.7412      2.00000
    323      -6.4106      2.00000
    324      -6.4103      2.00000
    325      -6.4100      2.00000
    326      -6.3209      2.00000
    327      -6.3206      2.00000
    328      -6.3203      2.00000
    329      -6.0950      2.00000
    330      -6.0947      2.00000
    331      -6.0945      2.00000
    332      -5.8050      2.00000
    333      -5.7046      2.00000
    334      -5.7043      2.00000
    335      -5.7041      2.00000
    336      -5.6625      2.00000
    337      -5.6622      2.00000
    338      -5.6619      2.00000
    339      -5.2547      2.00000
    340      -5.1366      2.00000
    341      -5.1362      2.00000
    342      -5.1360      2.00000
    343      -5.1219      2.00000
    344      -5.1215      2.00000
    345      -5.1214      2.00000
    346      -5.1213      2.00000
    347      -5.1213      2.00000
    348      -5.1204      2.00000
    349      -4.9351      2.00000
    350      -4.9349      2.00000
    351      -4.9344      2.00000
    352      -4.9154      2.00000
    353      -4.9150      2.00000
    354      -4.9148      2.00000
    355      -4.9148      2.00000
    356      -4.9147      2.00000
    357      -4.9139      2.00000
    358      -4.8101      2.00000
    359      -4.8098      2.00000
    360      -4.8094      2.00000
    361      -4.6417      2.00000
    362      -4.6412      2.00000
    363      -4.6412      2.00000
    364      -4.3254      2.00000
    365      -4.3247      2.00000
    366      -4.3247      2.00000
    367      -4.2600      2.00000
    368      -4.2597      2.00000
    369      -4.2593      2.00000
    370      -4.1694      2.00000
    371      -4.1690      2.00000
    372      -4.1688      2.00000
    373      -4.1688      2.00000
    374      -4.1687      2.00000
    375      -4.1681      2.00000
    376      -3.8500      2.00000
    377      -3.8498      2.00000
    378      -3.8495      2.00000
    379      -3.7269      2.00000
    380      -3.7266      2.00000
    381      -3.7265      2.00000
    382      -3.7265      2.00000
    383      -3.7263      2.00000
    384      -3.7259      2.00000
    385      -2.3910      2.00000
    386      -2.3905      2.00000
    387      -2.3901      2.00000
    388      -2.3662      2.00000
    389      -2.3653      2.00000
    390      -2.3652      2.00000
    391      -2.3652      2.00000
    392      -2.3651      2.00000
    393      -2.3644      2.00000
    394      -1.9962      2.00000
    395      -1.9953      2.00000
    396      -1.9952      2.00000
    397      -1.9952      2.00000
    398      -1.9950      2.00000
    399      -1.9947      2.00000
    400      -1.9771      2.00000
    401      -1.9769      2.00000
    402      -1.9751      2.00000
    403      -1.9107      2.00000
    404      -1.9101      2.00000
    405      -1.9100      2.00000
    406      -1.8793      2.00000
    407      -1.8788      2.00000
    408      -1.8785      2.00000
    409      -1.7285      2.00000
    410      -1.7279      2.00000
    411      -1.7278      2.00000
    412      -1.5516      2.00000
    413      -1.5514      2.00000
    414      -1.5500      2.00000
    415      -1.5377      2.00000
    416      -1.2755      2.00000
    417      -1.2744      2.00000
    418      -1.2744      2.00000
    419      -1.2743      2.00000
    420      -1.2742      2.00000
    421      -1.2741      2.00000
    422      -0.9495      2.00000
    423      -0.9483      2.00000
    424      -0.9483      2.00000
    425      -0.9482      2.00000
    426      -0.9481      2.00000
    427      -0.9481      2.00000
    428      -0.8019      2.00000
    429      -0.8017      2.00000
    430      -0.8004      2.00000
    431      -0.4808      2.00000
    432      -0.1328      2.00000
    433      -0.1325      2.00000
    434      -0.1319      2.00000
    435       0.1554      2.00000
    436       0.1558      2.00000
    437       0.1567      2.00000
    438       0.3873      2.00000
    439       0.3878      2.00000
    440       0.3880      2.00000
    441       1.1235      2.00000
    442       1.1237      2.00000
    443       1.1239      2.00000
    444       1.1240      2.00000
    445       1.1242      2.00000
    446       1.1243      2.00000
    447       1.1408      2.00000
    448       1.1411      2.00000
    449       1.1414      2.00000
    450       1.2222      2.00000
    451       1.2223      2.00000
    452       1.2227      2.00000
    453       1.2228      2.00000
    454       1.2230      2.00000
    455       1.2231      2.00000
    456       1.2318      2.00000
    457       1.2322      2.00000
    458       1.2326      2.00000
    459       1.3282      2.00000
    460       1.3287      2.00000
    461       1.3288      2.00000
    462       1.4961      2.00000
    463       1.4967      2.00000
    464       1.4967      2.00000
    465       1.5361      2.00000
    466       1.5362      2.00000
    467       1.5366      2.00000
    468       1.6063      2.00000
    469       1.6063      2.00000
    470       1.6069      2.00000
    471       1.6070      2.00000
    472       1.6072      2.00000
    473       1.6075      2.00000
    474       1.8443      2.00000
    475       1.8443      2.00000
    476       1.8451      2.00000
    477       1.8452      2.00000
    478       1.8453      2.00000
    479       1.8455      2.00000
    480       1.8640      2.00000
    481       1.8641      2.00000
    482       1.8643      2.00000
    483       1.8643      2.00000
    484       1.8647      2.00000
    485       1.8649      2.00000
    486       1.9432      2.00000
    487       1.9434      2.00000
    488       1.9438      2.00000
    489       2.1113      2.00000
    490       2.1117      2.00000
    491       2.1119      2.00000
    492       2.1889      2.00000
    493       2.1892      2.00000
    494       2.1893      2.00000
    495       2.2272      2.00000
    496       2.2273      2.00000
    497       2.2280      2.00000
    498       2.2966      2.00000
    499       2.2969      2.00000
    500       2.2969      2.00000
    501       2.4093      2.00000
    502       2.4852      2.00000
    503       2.4854      2.00000
    504       2.4856      2.00000
    505       2.4856      2.00000
    506       2.4859      2.00000
    507       2.4864      2.00000
    508       2.5182      2.00000
    509       2.5185      2.00000
    510       2.5185      2.00000
    511       2.7327      2.00000
    512       2.7331      2.00000
    513       2.7331      2.00000
    514       2.8319      2.00000
    515       2.8322      2.00000
    516       2.8324      2.00000
    517       2.9465      2.00000
    518       2.9469      2.00000
    519       2.9470      2.00000
    520       2.9624      2.00000
    521       2.9625      2.00000
    522       2.9627      2.00000
    523       2.9627      2.00000
    524       2.9630      2.00000
    525       2.9642      2.00000
    526       3.0375      2.00000
    527       3.0379      2.00000
    528       3.0381      2.00000
    529       3.1929      2.00000
    530       3.1931      2.00000
    531       3.1940      2.00000
    532       3.2817      2.00000
    533       3.2821      2.00000
    534       3.2821      2.00000
    535       3.3372      2.00000
    536       3.3376      2.00000
    537       3.3378      2.00000
    538       3.3447      2.00000
    539       3.3450      2.00000
    540       3.3456      2.00000
    541       3.4119      2.00000
    542       3.4120      2.00000
    543       3.4120      2.00000
    544       3.4120      2.00000
    545       3.4125      2.00000
    546       3.4137      2.00000
    547       3.5034      2.00000
    548       3.5034      2.00000
    549       3.5046      2.00000
    550       3.5628      2.00000
    551       3.5632      2.00000
    552       3.5633      2.00000
    553       3.6645      2.00000
    554       3.6649      2.00000
    555       3.6650      2.00000
    556       3.8855      2.00000
    557       3.8861      2.00000
    558       3.9758      2.00000
    559       3.9763      2.00000
    560       3.9764      2.00000
    561       4.0030      2.00000
    562       4.0471      2.00000
    563       4.0477      2.00000
    564       4.0680      2.00000
    565       4.0681      2.00000
    566       4.0695      2.00000
    567       4.1191      2.00000
    568       4.1197      2.00000
    569       4.1197      2.00000
    570       4.3672      2.00000
    571       4.3679      2.00000
    572       4.3680      2.00000
    573       4.6354      2.00000
    574       4.6359      2.00000
    575       4.9585      2.00000
    576       4.9591      2.00000
    577       5.9336      0.00000
    578       5.9337      0.00000
    579       5.9340      0.00000
    580       5.9529      0.00000
    581       6.1228      0.00000
    582       6.2203      0.00000
    583       6.2204      0.00000
    584       6.2209      0.00000
    585       6.3085      0.00000
    586       6.3086      0.00000
    587       6.3091      0.00000
    588       6.5319      0.00000
    589       6.5321      0.00000
    590       6.5323      0.00000
    591       6.5425      0.00000
    592       6.5428      0.00000
    593       6.5432      0.00000
    594       6.5598      0.00000
    595       6.5605      0.00000
    596       6.5609      0.00000
    597       6.7107      0.00000
    598       6.7698      0.00000
    599       6.7699      0.00000
    600       6.7704      0.00000
    601       6.7854      0.00000
    602       6.7858      0.00000
    603       6.7861      0.00000
    604       6.8720      0.00000
    605       6.8722      0.00000
    606       6.8723      0.00000
    607       6.8974      0.00000
    608       6.9733      0.00000
    609       6.9736      0.00000
    610       6.9738      0.00000
    611       6.9829      0.00000
    612       6.9832      0.00000
    613       6.9832      0.00000
    614       6.9833      0.00000
    615       6.9841      0.00000
    616       6.9843      0.00000
    617       7.0273      0.00000
    618       7.0274      0.00000
    619       7.0279      0.00000
    620       7.1163      0.00000
    621       7.1166      0.00000
    622       7.1168      0.00000
    623       7.2777      0.00000
    624       7.2784      0.00000
    625       7.2785      0.00000
    626       7.2785      0.00000
    627       7.2793      0.00000
    628       7.2794      0.00000
    629       7.4297      0.00000
    630       7.4299      0.00000
    631       7.4302      0.00000
    632       7.7995      0.00000
    633       7.8003      0.00000
    634       7.8004      0.00000
    635       7.8004      0.00000
    636       7.8011      0.00000
    637       7.8011      0.00000
    638       7.8485      0.00000
    639       7.8489      0.00000
    640       7.8505      0.00000
    641       7.8511      0.00000
    642       7.8515      0.00000
    643       7.8676      0.00000
    644       7.8682      0.00000
    645       7.8683      0.00000
    646       8.0448      0.00000
    647       8.0460      0.00000
    648       8.0460      0.00000
    649       8.1009      0.00000
    650       8.1011      0.00000
    651       8.1011      0.00000
    652       8.1012      0.00000
    653       8.1019      0.00000
    654       8.1020      0.00000
    655       8.1576      0.00000
    656       8.2902      0.00000
    657       8.2907      0.00000
    658       8.3257      0.00000
    659       8.3263      0.00000
    660       8.3264      0.00000
    661       8.4399      0.00000
    662       8.4401      0.00000
    663       8.4403      0.00000
    664       8.5269      0.00000
    665       8.5277      0.00000
    666       8.5278      0.00000
    667       8.6026      0.00000
    668       8.6032      0.00000
    669       8.6034      0.00000
    670       8.6876      0.00000
    671       8.6883      0.00000
    672       8.7042      0.00000
    673       8.7046      0.00000
    674       8.7046      0.00000
    675       8.7047      0.00000
    676       8.7055      0.00000
    677       8.7057      0.00000
    678       8.7328      0.00000
    679       8.7335      0.00000
    680       8.8930      0.00000
    681       8.8935      0.00000
    682       8.8936      0.00000
    683       8.9649      0.00000
    684       8.9655      0.00000
    685       8.9656      0.00000
    686       8.9886      0.00000
    687       8.9893      0.00000
    688       8.9894      0.00000
    689       9.0861      0.00000
    690       9.0866      0.00000
    691       9.0870      0.00000
    692       9.1010      0.00000
    693       9.1010      0.00000
    694       9.1012      0.00000
    695       9.1013      0.00000
    696       9.1021      0.00000
    697       9.1025      0.00000
    698       9.1713      0.00000
    699       9.1718      0.00000
    700       9.1722      0.00000
    701       9.2189      0.00000
    702       9.2196      0.00000
    703       9.2225      0.00000
    704       9.4102      0.00000

 k-point     3 :       0.0000    0.3333    0.0000
  band No.  band energies     occupation 
      1     -19.2236      2.00000
      2     -19.2236      2.00000
      3     -19.2236      2.00000
      4     -19.2221      2.00000
      5     -19.2221      2.00000
      6     -19.2221      2.00000
      7     -19.2215      2.00000
      8     -19.2215      2.00000
      9     -19.2214      2.00000
     10     -19.2212      2.00000
     11     -19.2211      2.00000
     12     -19.2211      2.00000
     13     -19.2202      2.00000
     14     -19.2202      2.00000
     15     -19.2201      2.00000
     16     -19.2201      2.00000
     17     -19.2200      2.00000
     18     -19.2200      2.00000
     19     -19.2200      2.00000
     20     -19.2199      2.00000
     21     -19.2199      2.00000
     22     -19.2195      2.00000
     23     -19.2195      2.00000
     24     -19.2194      2.00000
     25     -19.2194      2.00000
     26     -19.2194      2.00000
     27     -19.2193      2.00000
     28     -19.2193      2.00000
     29     -19.2193      2.00000
     30     -19.2192      2.00000
     31     -19.2192      2.00000
     32     -19.2192      2.00000
     33     -19.2192      2.00000
     34     -19.2189      2.00000
     35     -19.2188      2.00000
     36     -19.2188      2.00000
     37     -19.2187      2.00000
     38     -19.2186      2.00000
     39     -19.2186      2.00000
     40     -19.2185      2.00000
     41     -19.2185      2.00000
     42     -19.2184      2.00000
     43     -19.2183      2.00000
     44     -19.2182      2.00000
     45     -19.2182      2.00000
     46     -19.2181      2.00000
     47     -19.2181      2.00000
     48     -19.2181      2.00000
     49     -19.2181      2.00000
     50     -19.2180      2.00000
     51     -19.2180      2.00000
     52     -19.2179      2.00000
     53     -19.2179      2.00000
     54     -19.2179      2.00000
     55     -19.2179      2.00000
     56     -19.2178      2.00000
     57     -19.2178      2.00000
     58     -19.2178      2.00000
     59     -19.2178      2.00000
     60     -19.2178      2.00000
     61     -19.2177      2.00000
     62     -19.2177      2.00000
     63     -19.2176      2.00000
     64     -19.2176      2.00000
     65     -19.2174      2.00000
     66     -19.2173      2.00000
     67     -19.2166      2.00000
     68     -19.2165      2.00000
     69     -19.2155      2.00000
     70     -19.2154      2.00000
     71     -19.2153      2.00000
     72     -19.2152      2.00000
     73     -19.2151      2.00000
     74     -19.2150      2.00000
     75     -19.2149      2.00000
     76     -19.2148      2.00000
     77     -19.2148      2.00000
     78     -19.2145      2.00000
     79     -19.2144      2.00000
     80     -19.2144      2.00000
     81     -19.2143      2.00000
     82     -19.2143      2.00000
     83     -19.2142      2.00000
     84     -19.2141      2.00000
     85     -19.2141      2.00000
     86     -19.2141      2.00000
     87     -19.2140      2.00000
     88     -19.2139      2.00000
     89     -19.2139      2.00000
     90     -19.2137      2.00000
     91     -19.2137      2.00000
     92     -19.2137      2.00000
     93     -19.2136      2.00000
     94     -19.2136      2.00000
     95     -19.2135      2.00000
     96     -19.2135      2.00000
     97     -19.2133      2.00000
     98     -19.2133      2.00000
     99     -19.2132      2.00000
    100     -19.2132      2.00000
    101     -19.2132      2.00000
    102     -19.2132      2.00000
    103     -19.2132      2.00000
    104     -19.2132      2.00000
    105     -19.2131      2.00000
    106     -19.2129      2.00000
    107     -19.2128      2.00000
    108     -19.2128      2.00000
    109     -19.2127      2.00000
    110     -19.2127      2.00000
    111     -19.2126      2.00000
    112     -19.2126      2.00000
    113     -19.2125      2.00000
    114     -19.2125      2.00000
    115     -19.2124      2.00000
    116     -19.2123      2.00000
    117     -19.2123      2.00000
    118     -19.2123      2.00000
    119     -19.2122      2.00000
    120     -19.2122      2.00000
    121     -19.2122      2.00000
    122     -19.2121      2.00000
    123     -19.2121      2.00000
    124     -19.2121      2.00000
    125     -19.2120      2.00000
    126     -19.2120      2.00000
    127     -19.2118      2.00000
    128     -19.2117      2.00000
    129     -19.2117      2.00000
    130     -19.2117      2.00000
    131     -19.2116      2.00000
    132     -19.2116      2.00000
    133     -19.2116      2.00000
    134     -19.2116      2.00000
    135     -19.2116      2.00000
    136     -19.2115      2.00000
    137     -19.2115      2.00000
    138     -19.2115      2.00000
    139     -19.2115      2.00000
    140     -19.2114      2.00000
    141     -19.2114      2.00000
    142     -19.2113      2.00000
    143     -19.2113      2.00000
    144     -19.2113      2.00000
    145     -19.2112      2.00000
    146     -19.2112      2.00000
    147     -19.2112      2.00000
    148     -19.2111      2.00000
    149     -19.2111      2.00000
    150     -19.2111      2.00000
    151     -19.2110      2.00000
    152     -19.2110      2.00000
    153     -19.2109      2.00000
    154     -19.2109      2.00000
    155     -19.2109      2.00000
    156     -19.2108      2.00000
    157     -19.2106      2.00000
    158     -19.2106      2.00000
    159     -19.2106      2.00000
    160     -19.2105      2.00000
    161     -19.2105      2.00000
    162     -19.2104      2.00000
    163     -19.2104      2.00000
    164     -19.2104      2.00000
    165     -19.2102      2.00000
    166     -19.2102      2.00000
    167     -19.2101      2.00000
    168     -19.2100      2.00000
    169     -19.2091      2.00000
    170     -19.2091      2.00000
    171     -19.2091      2.00000
    172     -19.2088      2.00000
    173     -19.2088      2.00000
    174     -19.2088      2.00000
    175     -19.2087      2.00000
    176     -19.2087      2.00000
    177     -19.2087      2.00000
    178     -19.2086      2.00000
    179     -19.2085      2.00000
    180     -19.2085      2.00000
    181     -19.2077      2.00000
    182     -19.2077      2.00000
    183     -19.2077      2.00000
    184     -19.2076      2.00000
    185     -19.2076      2.00000
    186     -19.2076      2.00000
    187     -19.2076      2.00000
    188     -19.2076      2.00000
    189     -19.2076      2.00000
    190     -19.2075      2.00000
    191     -19.2075      2.00000
    192     -19.2075      2.00000
    193     -19.1961      2.00000
    194     -19.1961      2.00000
    195     -19.1960      2.00000
    196     -19.1954      2.00000
    197     -19.1953      2.00000
    198     -19.1952      2.00000
    199     -19.1948      2.00000
    200     -19.1948      2.00000
    201     -19.1946      2.00000
    202     -19.1946      2.00000
    203     -19.1945      2.00000
    204     -19.1945      2.00000
    205     -19.1944      2.00000
    206     -19.1944      2.00000
    207     -19.1943      2.00000
    208     -19.1943      2.00000
    209     -19.1942      2.00000
    210     -19.1942      2.00000
    211     -19.1941      2.00000
    212     -19.1941      2.00000
    213     -19.1940      2.00000
    214     -19.1940      2.00000
    215     -19.1939      2.00000
    216     -19.1939      2.00000
    217     -19.1938      2.00000
    218     -19.1937      2.00000
    219     -19.1937      2.00000
    220     -19.1935      2.00000
    221     -19.1935      2.00000
    222     -19.1934      2.00000
    223     -19.1934      2.00000
    224     -19.1933      2.00000
    225     -19.1933      2.00000
    226     -19.1932      2.00000
    227     -19.1931      2.00000
    228     -19.1930      2.00000
    229     -19.1930      2.00000
    230     -19.1930      2.00000
    231     -19.1929      2.00000
    232     -19.1928      2.00000
    233     -19.1928      2.00000
    234     -19.1927      2.00000
    235     -19.1927      2.00000
    236     -19.1927      2.00000
    237     -19.1926      2.00000
    238     -19.1926      2.00000
    239     -19.1925      2.00000
    240     -19.1925      2.00000
    241     -19.1925      2.00000
    242     -19.1924      2.00000
    243     -19.1924      2.00000
    244     -19.1924      2.00000
    245     -19.1923      2.00000
    246     -19.1923      2.00000
    247     -19.1922      2.00000
    248     -19.1922      2.00000
    249     -19.1921      2.00000
    250     -19.1921      2.00000
    251     -19.1921      2.00000
    252     -19.1920      2.00000
    253     -19.1920      2.00000
    254     -19.1917      2.00000
    255     -19.1917      2.00000
    256     -19.1916      2.00000
    257     -19.1916      2.00000
    258     -19.1916      2.00000
    259     -19.1915      2.00000
    260     -19.1915      2.00000
    261     -19.1914      2.00000
    262     -19.1914      2.00000
    263     -19.1914      2.00000
    264     -19.1913      2.00000
    265     -19.1913      2.00000
    266     -19.1913      2.00000
    267     -19.1913      2.00000
    268     -19.1912      2.00000
    269     -19.1912      2.00000
    270     -19.1912      2.00000
    271     -19.1911      2.00000
    272     -19.1911      2.00000
    273     -19.1910      2.00000
    274     -19.1909      2.00000
    275     -19.1909      2.00000
    276     -19.1909      2.00000
    277     -19.1908      2.00000
    278     -19.1908      2.00000
    279     -19.1908      2.00000
    280     -19.1908      2.00000
    281     -19.1907      2.00000
    282     -19.1907      2.00000
    283     -19.1906      2.00000
    284     -19.1906      2.00000
    285     -19.1905      2.00000
    286     -19.1905      2.00000
    287     -19.1904      2.00000
    288     -19.1904      2.00000
    289     -19.1903      2.00000
    290     -19.1902      2.00000
    291     -19.1902      2.00000
    292     -19.1901      2.00000
    293     -19.1901      2.00000
    294     -19.1901      2.00000
    295     -19.1900      2.00000
    296     -19.1900      2.00000
    297     -19.1899      2.00000
    298     -19.1899      2.00000
    299     -19.1899      2.00000
    300     -19.1899      2.00000
    301     -19.1898      2.00000
    302     -19.1898      2.00000
    303     -19.1897      2.00000
    304     -19.1897      2.00000
    305     -19.1897      2.00000
    306     -19.1896      2.00000
    307     -19.1896      2.00000
    308     -19.1895      2.00000
    309     -19.1894      2.00000
    310     -19.1894      2.00000
    311     -19.1893      2.00000
    312     -19.1893      2.00000
    313     -19.1891      2.00000
    314     -19.1891      2.00000
    315     -19.1887      2.00000
    316     -19.1887      2.00000
    317     -19.1886      2.00000
    318     -19.1881      2.00000
    319     -19.1881      2.00000
    320     -19.1880      2.00000
    321      -6.9934      2.00000
    322      -6.7411      2.00000
    323      -6.4108      2.00000
    324      -6.4103      2.00000
    325      -6.4099      2.00000
    326      -6.3211      2.00000
    327      -6.3206      2.00000
    328      -6.3202      2.00000
    329      -6.0952      2.00000
    330      -6.0947      2.00000
    331      -6.0943      2.00000
    332      -5.8049      2.00000
    333      -5.7048      2.00000
    334      -5.7043      2.00000
    335      -5.7039      2.00000
    336      -5.6626      2.00000
    337      -5.6622      2.00000
    338      -5.6617      2.00000
    339      -5.2545      2.00000
    340      -5.1367      2.00000
    341      -5.1361      2.00000
    342      -5.1357      2.00000
    343      -5.1224      2.00000
    344      -5.1214      2.00000
    345      -5.1214      2.00000
    346      -5.1213      2.00000
    347      -5.1213      2.00000
    348      -5.1203      2.00000
    349      -4.9353      2.00000
    350      -4.9349      2.00000
    351      -4.9344      2.00000
    352      -4.9159      2.00000
    353      -4.9149      2.00000
    354      -4.9148      2.00000
    355      -4.9148      2.00000
    356      -4.9148      2.00000
    357      -4.9137      2.00000
    358      -4.8103      2.00000
    359      -4.8098      2.00000
    360      -4.8094      2.00000
    361      -4.6417      2.00000
    362      -4.6412      2.00000
    363      -4.6408      2.00000
    364      -4.3251      2.00000
    365      -4.3247      2.00000
    366      -4.3242      2.00000
    367      -4.2602      2.00000
    368      -4.2597      2.00000
    369      -4.2592      2.00000
    370      -4.1698      2.00000
    371      -4.1689      2.00000
    372      -4.1689      2.00000
    373      -4.1688      2.00000
    374      -4.1688      2.00000
    375      -4.1679      2.00000
    376      -3.8502      2.00000
    377      -3.8498      2.00000
    378      -3.8493      2.00000
    379      -3.7272      2.00000
    380      -3.7266      2.00000
    381      -3.7265      2.00000
    382      -3.7265      2.00000
    383      -3.7264      2.00000
    384      -3.7257      2.00000
    385      -2.3912      2.00000
    386      -2.3905      2.00000
    387      -2.3899      2.00000
    388      -2.3663      2.00000
    389      -2.3652      2.00000
    390      -2.3652      2.00000
    391      -2.3651      2.00000
    392      -2.3651      2.00000
    393      -2.3640      2.00000
    394      -1.9965      2.00000
    395      -1.9952      2.00000
    396      -1.9952      2.00000
    397      -1.9952      2.00000
    398      -1.9951      2.00000
    399      -1.9939      2.00000
    400      -1.9771      2.00000
    401      -1.9769      2.00000
    402      -1.9768      2.00000
    403      -1.9107      2.00000
    404      -1.9100      2.00000
    405      -1.9094      2.00000
    406      -1.8794      2.00000
    407      -1.8787      2.00000
    408      -1.8781      2.00000
    409      -1.7285      2.00000
    410      -1.7279      2.00000
    411      -1.7272      2.00000
    412      -1.5516      2.00000
    413      -1.5514      2.00000
    414      -1.5512      2.00000
    415      -1.5382      2.00000
    416      -1.2757      2.00000
    417      -1.2745      2.00000
    418      -1.2743      2.00000
    419      -1.2743      2.00000
    420      -1.2742      2.00000
    421      -1.2730      2.00000
    422      -0.9496      2.00000
    423      -0.9483      2.00000
    424      -0.9482      2.00000
    425      -0.9482      2.00000
    426      -0.9481      2.00000
    427      -0.9468      2.00000
    428      -0.8020      2.00000
    429      -0.8016      2.00000
    430      -0.8013      2.00000
    431      -0.4812      2.00000
    432      -0.1329      2.00000
    433      -0.1325      2.00000
    434      -0.1320      2.00000
    435       0.1553      2.00000
    436       0.1558      2.00000
    437       0.1562      2.00000
    438       0.3873      2.00000
    439       0.3878      2.00000
    440       0.3883      2.00000
    441       1.1235      2.00000
    442       1.1236      2.00000
    443       1.1239      2.00000
    444       1.1240      2.00000
    445       1.1243      2.00000
    446       1.1244      2.00000
    447       1.1410      2.00000
    448       1.1412      2.00000
    449       1.1415      2.00000
    450       1.2222      2.00000
    451       1.2223      2.00000
    452       1.2227      2.00000
    453       1.2228      2.00000
    454       1.2231      2.00000
    455       1.2232      2.00000
    456       1.2320      2.00000
    457       1.2323      2.00000
    458       1.2327      2.00000
    459       1.3282      2.00000
    460       1.3288      2.00000
    461       1.3293      2.00000
    462       1.4962      2.00000
    463       1.4967      2.00000
    464       1.4973      2.00000
    465       1.5358      2.00000
    466       1.5361      2.00000
    467       1.5363      2.00000
    468       1.6063      2.00000
    469       1.6066      2.00000
    470       1.6069      2.00000
    471       1.6070      2.00000
    472       1.6073      2.00000
    473       1.6075      2.00000
    474       1.8445      2.00000
    475       1.8447      2.00000
    476       1.8451      2.00000
    477       1.8452      2.00000
    478       1.8456      2.00000
    479       1.8458      2.00000
    480       1.8637      2.00000
    481       1.8641      2.00000
    482       1.8643      2.00000
    483       1.8644      2.00000
    484       1.8647      2.00000
    485       1.8651      2.00000
    486       1.9430      2.00000
    487       1.9433      2.00000
    488       1.9436      2.00000
    489       2.1113      2.00000
    490       2.1118      2.00000
    491       2.1122      2.00000
    492       2.1886      2.00000
    493       2.1890      2.00000
    494       2.1894      2.00000
    495       2.2268      2.00000
    496       2.2272      2.00000
    497       2.2275      2.00000
    498       2.2966      2.00000
    499       2.2969      2.00000
    500       2.2972      2.00000
    501       2.4089      2.00000
    502       2.4849      2.00000
    503       2.4854      2.00000
    504       2.4856      2.00000
    505       2.4857      2.00000
    506       2.4859      2.00000
    507       2.4864      2.00000
    508       2.5182      2.00000
    509       2.5185      2.00000
    510       2.5188      2.00000
    511       2.7326      2.00000
    512       2.7330      2.00000
    513       2.7335      2.00000
    514       2.8319      2.00000
    515       2.8323      2.00000
    516       2.8327      2.00000
    517       2.9465      2.00000
    518       2.9469      2.00000
    519       2.9473      2.00000
    520       2.9621      2.00000
    521       2.9623      2.00000
    522       2.9626      2.00000
    523       2.9626      2.00000
    524       2.9629      2.00000
    525       2.9631      2.00000
    526       3.0375      2.00000
    527       3.0379      2.00000
    528       3.0384      2.00000
    529       3.1927      2.00000
    530       3.1930      2.00000
    531       3.1933      2.00000
    532       3.2819      2.00000
    533       3.2822      2.00000
    534       3.2825      2.00000
    535       3.3372      2.00000
    536       3.3377      2.00000
    537       3.3382      2.00000
    538       3.3445      2.00000
    539       3.3449      2.00000
    540       3.3453      2.00000
    541       3.4114      2.00000
    542       3.4117      2.00000
    543       3.4121      2.00000
    544       3.4121      2.00000
    545       3.4124      2.00000
    546       3.4128      2.00000
    547       3.5033      2.00000
    548       3.5033      2.00000
    549       3.5034      2.00000
    550       3.5629      2.00000
    551       3.5633      2.00000
    552       3.5638      2.00000
    553       3.6647      2.00000
    554       3.6651      2.00000
    555       3.6655      2.00000
    556       3.8854      2.00000
    557       3.8864      2.00000
    558       3.9760      2.00000
    559       3.9764      2.00000
    560       3.9769      2.00000
    561       4.0025      2.00000
    562       4.0471      2.00000
    563       4.0480      2.00000
    564       4.0678      2.00000
    565       4.0680      2.00000
    566       4.0682      2.00000
    567       4.1192      2.00000
    568       4.1198      2.00000
    569       4.1203      2.00000
    570       4.3675      2.00000
    571       4.3680      2.00000
    572       4.3686      2.00000
    573       4.6354      2.00000
    574       4.6364      2.00000
    575       4.9585      2.00000
    576       4.9597      2.00000
    577       5.9336      0.00000
    578       5.9339      0.00000
    579       5.9342      0.00000
    580       5.9532      0.00000
    581       6.1230      0.00000
    582       6.2203      0.00000
    583       6.2207      0.00000
    584       6.2211      0.00000
    585       6.3082      0.00000
    586       6.3087      0.00000
    587       6.3092      0.00000
    588       6.5317      0.00000
    589       6.5320      0.00000
    590       6.5323      0.00000
    591       6.5424      0.00000
    592       6.5430      0.00000
    593       6.5436      0.00000
    594       6.5597      0.00000
    595       6.5603      0.00000
    596       6.5609      0.00000
    597       6.7110      0.00000
    598       6.7697      0.00000
    599       6.7702      0.00000
    600       6.7708      0.00000
    601       6.7854      0.00000
    602       6.7859      0.00000
    603       6.7863      0.00000
    604       6.8718      0.00000
    605       6.8720      0.00000
    606       6.8723      0.00000
    607       6.8976      0.00000
    608       6.9732      0.00000
    609       6.9737      0.00000
    610       6.9741      0.00000
    611       6.9825      0.00000
    612       6.9831      0.00000
    613       6.9832      0.00000
    614       6.9833      0.00000
    615       6.9835      0.00000
    616       6.9841      0.00000
    617       7.0272      0.00000
    618       7.0278      0.00000
    619       7.0283      0.00000
    620       7.1161      0.00000
    621       7.1164      0.00000
    622       7.1168      0.00000
    623       7.2776      0.00000
    624       7.2784      0.00000
    625       7.2785      0.00000
    626       7.2786      0.00000
    627       7.2787      0.00000
    628       7.2795      0.00000
    629       7.4295      0.00000
    630       7.4300      0.00000
    631       7.4305      0.00000
    632       7.7996      0.00000
    633       7.8003      0.00000
    634       7.8004      0.00000
    635       7.8004      0.00000
    636       7.8005      0.00000
    637       7.8012      0.00000
    638       7.8482      0.00000
    639       7.8490      0.00000
    640       7.8503      0.00000
    641       7.8509      0.00000
    642       7.8514      0.00000
    643       7.8677      0.00000
    644       7.8679      0.00000
    645       7.8682      0.00000
    646       8.0456      0.00000
    647       8.0460      0.00000
    648       8.0464      0.00000
    649       8.1004      0.00000
    650       8.1010      0.00000
    651       8.1011      0.00000
    652       8.1012      0.00000
    653       8.1014      0.00000
    654       8.1020      0.00000
    655       8.1577      0.00000
    656       8.2900      0.00000
    657       8.2908      0.00000
    658       8.3256      0.00000
    659       8.3259      0.00000
    660       8.3262      0.00000
    661       8.4400      0.00000
    662       8.4402      0.00000
    663       8.4404      0.00000
    664       8.5274      0.00000
    665       8.5278      0.00000
    666       8.5282      0.00000
    667       8.6024      0.00000
    668       8.6026      0.00000
    669       8.6028      0.00000
    670       8.6875      0.00000
    671       8.6887      0.00000
    672       8.7037      0.00000
    673       8.7045      0.00000
    674       8.7046      0.00000
    675       8.7047      0.00000
    676       8.7047      0.00000
    677       8.7056      0.00000
    678       8.7327      0.00000
    679       8.7339      0.00000
    680       8.8933      0.00000
    681       8.8937      0.00000
    682       8.8940      0.00000
    683       8.9650      0.00000
    684       8.9654      0.00000
    685       8.9659      0.00000
    686       8.9886      0.00000
    687       8.9886      0.00000
    688       8.9886      0.00000
    689       9.0858      0.00000
    690       9.0862      0.00000
    691       9.0865      0.00000
    692       9.1006      0.00000
    693       9.1010      0.00000
    694       9.1011      0.00000
    695       9.1013      0.00000
    696       9.1014      0.00000
    697       9.1019      0.00000
    698       9.1711      0.00000
    699       9.1714      0.00000
    700       9.1723      0.00000
    701       9.2189      0.00000
    702       9.2203      0.00000
    703       9.2242      0.00000
    704       9.4131      0.00000

 k-point     4 :       0.3333    0.3333    0.3333
  band No.  band energies     occupation 
      1     -19.2236      2.00000
      2     -19.2236      2.00000
      3     -19.2236      2.00000
      4     -19.2221      2.00000
      5     -19.2221      2.00000
      6     -19.2220      2.00000
      7     -19.2215      2.00000
      8     -19.2215      2.00000
      9     -19.2214      2.00000
     10     -19.2212      2.00000
     11     -19.2211      2.00000
     12     -19.2211      2.00000
     13     -19.2202      2.00000
     14     -19.2202      2.00000
     15     -19.2201      2.00000
     16     -19.2201      2.00000
     17     -19.2200      2.00000
     18     -19.2200      2.00000
     19     -19.2200      2.00000
     20     -19.2199      2.00000
     21     -19.2199      2.00000
     22     -19.2196      2.00000
     23     -19.2195      2.00000
     24     -19.2195      2.00000
     25     -19.2194      2.00000
     26     -19.2194      2.00000
     27     -19.2194      2.00000
     28     -19.2193      2.00000
     29     -19.2193      2.00000
     30     -19.2192      2.00000
     31     -19.2192      2.00000
     32     -19.2191      2.00000
     33     -19.2190      2.00000
     34     -19.2189      2.00000
     35     -19.2188      2.00000
     36     -19.2188      2.00000
     37     -19.2186      2.00000
     38     -19.2186      2.00000
     39     -19.2185      2.00000
     40     -19.2185      2.00000
     41     -19.2185      2.00000
     42     -19.2184      2.00000
     43     -19.2183      2.00000
     44     -19.2182      2.00000
     45     -19.2182      2.00000
     46     -19.2182      2.00000
     47     -19.2182      2.00000
     48     -19.2181      2.00000
     49     -19.2181      2.00000
     50     -19.2180      2.00000
     51     -19.2180      2.00000
     52     -19.2180      2.00000
     53     -19.2180      2.00000
     54     -19.2179      2.00000
     55     -19.2178      2.00000
     56     -19.2178      2.00000
     57     -19.2178      2.00000
     58     -19.2178      2.00000
     59     -19.2178      2.00000
     60     -19.2177      2.00000
     61     -19.2177      2.00000
     62     -19.2177      2.00000
     63     -19.2176      2.00000
     64     -19.2176      2.00000
     65     -19.2174      2.00000
     66     -19.2173      2.00000
     67     -19.2166      2.00000
     68     -19.2165      2.00000
     69     -19.2154      2.00000
     70     -19.2154      2.00000
     71     -19.2152      2.00000
     72     -19.2152      2.00000
     73     -19.2150      2.00000
     74     -19.2150      2.00000
     75     -19.2149      2.00000
     76     -19.2149      2.00000
     77     -19.2148      2.00000
     78     -19.2144      2.00000
     79     -19.2144      2.00000
     80     -19.2144      2.00000
     81     -19.2143      2.00000
     82     -19.2143      2.00000
     83     -19.2142      2.00000
     84     -19.2141      2.00000
     85     -19.2140      2.00000
     86     -19.2140      2.00000
     87     -19.2139      2.00000
     88     -19.2139      2.00000
     89     -19.2138      2.00000
     90     -19.2138      2.00000
     91     -19.2137      2.00000
     92     -19.2137      2.00000
     93     -19.2136      2.00000
     94     -19.2136      2.00000
     95     -19.2135      2.00000
     96     -19.2134      2.00000
     97     -19.2133      2.00000
     98     -19.2133      2.00000
     99     -19.2133      2.00000
    100     -19.2132      2.00000
    101     -19.2132      2.00000
    102     -19.2132      2.00000
    103     -19.2132      2.00000
    104     -19.2132      2.00000
    105     -19.2132      2.00000
    106     -19.2129      2.00000
    107     -19.2128      2.00000
    108     -19.2128      2.00000
    109     -19.2127      2.00000
    110     -19.2126      2.00000
    111     -19.2126      2.00000
    112     -19.2126      2.00000
    113     -19.2125      2.00000
    114     -19.2125      2.00000
    115     -19.2124      2.00000
    116     -19.2123      2.00000
    117     -19.2123      2.00000
    118     -19.2123      2.00000
    119     -19.2122      2.00000
    120     -19.2122      2.00000
    121     -19.2122      2.00000
    122     -19.2122      2.00000
    123     -19.2121      2.00000
    124     -19.2121      2.00000
    125     -19.2120      2.00000
    126     -19.2120      2.00000
    127     -19.2118      2.00000
    128     -19.2118      2.00000
    129     -19.2117      2.00000
    130     -19.2117      2.00000
    131     -19.2116      2.00000
    132     -19.2116      2.00000
    133     -19.2116      2.00000
    134     -19.2116      2.00000
    135     -19.2116      2.00000
    136     -19.2116      2.00000
    137     -19.2115      2.00000
    138     -19.2115      2.00000
    139     -19.2114      2.00000
    140     -19.2114      2.00000
    141     -19.2114      2.00000
    142     -19.2113      2.00000
    143     -19.2113      2.00000
    144     -19.2113      2.00000
    145     -19.2112      2.00000
    146     -19.2112      2.00000
    147     -19.2111      2.00000
    148     -19.2111      2.00000
    149     -19.2111      2.00000
    150     -19.2110      2.00000
    151     -19.2110      2.00000
    152     -19.2110      2.00000
    153     -19.2109      2.00000
    154     -19.2109      2.00000
    155     -19.2109      2.00000
    156     -19.2108      2.00000
    157     -19.2106      2.00000
    158     -19.2106      2.00000
    159     -19.2105      2.00000
    160     -19.2105      2.00000
    161     -19.2105      2.00000
    162     -19.2105      2.00000
    163     -19.2104      2.00000
    164     -19.2102      2.00000
    165     -19.2102      2.00000
    166     -19.2102      2.00000
    167     -19.2101      2.00000
    168     -19.2100      2.00000
    169     -19.2092      2.00000
    170     -19.2091      2.00000
    171     -19.2091      2.00000
    172     -19.2088      2.00000
    173     -19.2088      2.00000
    174     -19.2088      2.00000
    175     -19.2088      2.00000
    176     -19.2087      2.00000
    177     -19.2087      2.00000
    178     -19.2086      2.00000
    179     -19.2086      2.00000
    180     -19.2086      2.00000
    181     -19.2077      2.00000
    182     -19.2077      2.00000
    183     -19.2077      2.00000
    184     -19.2076      2.00000
    185     -19.2076      2.00000
    186     -19.2076      2.00000
    187     -19.2076      2.00000
    188     -19.2076      2.00000
    189     -19.2075      2.00000
    190     -19.2075      2.00000
    191     -19.2075      2.00000
    192     -19.2074      2.00000
    193     -19.1961      2.00000
    194     -19.1961      2.00000
    195     -19.1961      2.00000
    196     -19.1953      2.00000
    197     -19.1953      2.00000
    198     -19.1952      2.00000
    199     -19.1947      2.00000
    200     -19.1947      2.00000
    201     -19.1947      2.00000
    202     -19.1946      2.00000
    203     -19.1946      2.00000
    204     -19.1945      2.00000
    205     -19.1944      2.00000
    206     -19.1943      2.00000
    207     -19.1943      2.00000
    208     -19.1942      2.00000
    209     -19.1942      2.00000
    210     -19.1942      2.00000
    211     -19.1942      2.00000
    212     -19.1941      2.00000
    213     -19.1940      2.00000
    214     -19.1940      2.00000
    215     -19.1940      2.00000
    216     -19.1940      2.00000
    217     -19.1938      2.00000
    218     -19.1937      2.00000
    219     -19.1935      2.00000
    220     -19.1935      2.00000
    221     -19.1935      2.00000
    222     -19.1934      2.00000
    223     -19.1934      2.00000
    224     -19.1933      2.00000
    225     -19.1932      2.00000
    226     -19.1932      2.00000
    227     -19.1932      2.00000
    228     -19.1931      2.00000
    229     -19.1929      2.00000
    230     -19.1929      2.00000
    231     -19.1928      2.00000
    232     -19.1928      2.00000
    233     -19.1927      2.00000
    234     -19.1927      2.00000
    235     -19.1927      2.00000
    236     -19.1926      2.00000
    237     -19.1926      2.00000
    238     -19.1926      2.00000
    239     -19.1925      2.00000
    240     -19.1925      2.00000
    241     -19.1925      2.00000
    242     -19.1924      2.00000
    243     -19.1924      2.00000
    244     -19.1923      2.00000
    245     -19.1923      2.00000
    246     -19.1923      2.00000
    247     -19.1923      2.00000
    248     -19.1922      2.00000
    249     -19.1922      2.00000
    250     -19.1922      2.00000
    251     -19.1922      2.00000
    252     -19.1920      2.00000
    253     -19.1920      2.00000
    254     -19.1918      2.00000
    255     -19.1916      2.00000
    256     -19.1916      2.00000
    257     -19.1915      2.00000
    258     -19.1915      2.00000
    259     -19.1915      2.00000
    260     -19.1914      2.00000
    261     -19.1914      2.00000
    262     -19.1914      2.00000
    263     -19.1914      2.00000
    264     -19.1913      2.00000
    265     -19.1913      2.00000
    266     -19.1913      2.00000
    267     -19.1912      2.00000
    268     -19.1912      2.00000
    269     -19.1912      2.00000
    270     -19.1911      2.00000
    271     -19.1911      2.00000
    272     -19.1911      2.00000
    273     -19.1910      2.00000
    274     -19.1910      2.00000
    275     -19.1910      2.00000
    276     -19.1909      2.00000
    277     -19.1908      2.00000
    278     -19.1908      2.00000
    279     -19.1908      2.00000
    280     -19.1908      2.00000
    281     -19.1907      2.00000
    282     -19.1907      2.00000
    283     -19.1906      2.00000
    284     -19.1905      2.00000
    285     -19.1905      2.00000
    286     -19.1904      2.00000
    287     -19.1904      2.00000
    288     -19.1904      2.00000
    289     -19.1904      2.00000
    290     -19.1903      2.00000
    291     -19.1902      2.00000
    292     -19.1902      2.00000
    293     -19.1902      2.00000
    294     -19.1901      2.00000
    295     -19.1901      2.00000
    296     -19.1901      2.00000
    297     -19.1899      2.00000
    298     -19.1899      2.00000
    299     -19.1899      2.00000
    300     -19.1898      2.00000
    301     -19.1898      2.00000
    302     -19.1897      2.00000
    303     -19.1897      2.00000
    304     -19.1896      2.00000
    305     -19.1896      2.00000
    306     -19.1896      2.00000
    307     -19.1895      2.00000
    308     -19.1895      2.00000
    309     -19.1894      2.00000
    310     -19.1893      2.00000
    311     -19.1893      2.00000
    312     -19.1892      2.00000
    313     -19.1891      2.00000
    314     -19.1890      2.00000
    315     -19.1888      2.00000
    316     -19.1888      2.00000
    317     -19.1888      2.00000
    318     -19.1881      2.00000
    319     -19.1880      2.00000
    320     -19.1880      2.00000
    321      -6.9934      2.00000
    322      -6.7411      2.00000
    323      -6.4106      2.00000
    324      -6.4103      2.00000
    325      -6.4101      2.00000
    326      -6.3209      2.00000
    327      -6.3206      2.00000
    328      -6.3204      2.00000
    329      -6.0950      2.00000
    330      -6.0947      2.00000
    331      -6.0945      2.00000
    332      -5.8048      2.00000
    333      -5.7046      2.00000
    334      -5.7043      2.00000
    335      -5.7041      2.00000
    336      -5.6624      2.00000
    337      -5.6622      2.00000
    338      -5.6619      2.00000
    339      -5.2544      2.00000
    340      -5.1363      2.00000
    341      -5.1361      2.00000
    342      -5.1358      2.00000
    343      -5.1222      2.00000
    344      -5.1215      2.00000
    345      -5.1214      2.00000
    346      -5.1214      2.00000
    347      -5.1212      2.00000
    348      -5.1208      2.00000
    349      -4.9354      2.00000
    350      -4.9349      2.00000
    351      -4.9346      2.00000
    352      -4.9157      2.00000
    353      -4.9149      2.00000
    354      -4.9149      2.00000
    355      -4.9148      2.00000
    356      -4.9147      2.00000
    357      -4.9143      2.00000
    358      -4.8103      2.00000
    359      -4.8098      2.00000
    360      -4.8096      2.00000
    361      -4.6413      2.00000
    362      -4.6412      2.00000
    363      -4.6407      2.00000
    364      -4.3247      2.00000
    365      -4.3247      2.00000
    366      -4.3240      2.00000
    367      -4.2601      2.00000
    368      -4.2597      2.00000
    369      -4.2594      2.00000
    370      -4.1696      2.00000
    371      -4.1690      2.00000
    372      -4.1689      2.00000
    373      -4.1689      2.00000
    374      -4.1687      2.00000
    375      -4.1683      2.00000
    376      -3.8501      2.00000
    377      -3.8498      2.00000
    378      -3.8495      2.00000
    379      -3.7270      2.00000
    380      -3.7266      2.00000
    381      -3.7265      2.00000
    382      -3.7265      2.00000
    383      -3.7263      2.00000
    384      -3.7261      2.00000
    385      -2.3909      2.00000
    386      -2.3905      2.00000
    387      -2.3900      2.00000
    388      -2.3660      2.00000
    389      -2.3653      2.00000
    390      -2.3652      2.00000
    391      -2.3652      2.00000
    392      -2.3651      2.00000
    393      -2.3642      2.00000
    394      -1.9958      2.00000
    395      -1.9953      2.00000
    396      -1.9952      2.00000
    397      -1.9952      2.00000
    398      -1.9951      2.00000
    399      -1.9942      2.00000
    400      -1.9786      2.00000
    401      -1.9769      2.00000
    402      -1.9767      2.00000
    403      -1.9101      2.00000
    404      -1.9100      2.00000
    405      -1.9094      2.00000
    406      -1.8789      2.00000
    407      -1.8787      2.00000
    408      -1.8781      2.00000
    409      -1.7279      2.00000
    410      -1.7278      2.00000
    411      -1.7272      2.00000
    412      -1.5529      2.00000
    413      -1.5514      2.00000
    414      -1.5512      2.00000
    415      -1.5387      2.00000
    416      -1.2745      2.00000
    417      -1.2745      2.00000
    418      -1.2743      2.00000
    419      -1.2743      2.00000
    420      -1.2742      2.00000
    421      -1.2731      2.00000
    422      -0.9483      2.00000
    423      -0.9483      2.00000
    424      -0.9482      2.00000
    425      -0.9481      2.00000
    426      -0.9481      2.00000
    427      -0.9469      2.00000
    428      -0.8029      2.00000
    429      -0.8016      2.00000
    430      -0.8014      2.00000
    431      -0.4817      2.00000
    432      -0.1331      2.00000
    433      -0.1324      2.00000
    434      -0.1321      2.00000
    435       0.1549      2.00000
    436       0.1558      2.00000
    437       0.1561      2.00000
    438       0.3875      2.00000
    439       0.3878      2.00000
    440       0.3882      2.00000
    441       1.1235      2.00000
    442       1.1237      2.00000
    443       1.1239      2.00000
    444       1.1240      2.00000
    445       1.1242      2.00000
    446       1.1244      2.00000
    447       1.1410      2.00000
    448       1.1413      2.00000
    449       1.1416      2.00000
    450       1.2223      2.00000
    451       1.2224      2.00000
    452       1.2226      2.00000
    453       1.2227      2.00000
    454       1.2231      2.00000
    455       1.2232      2.00000
    456       1.2321      2.00000
    457       1.2324      2.00000
    458       1.2328      2.00000
    459       1.3288      2.00000
    460       1.3289      2.00000
    461       1.3294      2.00000
    462       1.4968      2.00000
    463       1.4968      2.00000
    464       1.4974      2.00000
    465       1.5355      2.00000
    466       1.5359      2.00000
    467       1.5360      2.00000
    468       1.6064      2.00000
    469       1.6067      2.00000
    470       1.6068      2.00000
    471       1.6069      2.00000
    472       1.6075      2.00000
    473       1.6076      2.00000
    474       1.8448      2.00000
    475       1.8451      2.00000
    476       1.8451      2.00000
    477       1.8452      2.00000
    478       1.8459      2.00000
    479       1.8460      2.00000
    480       1.8639      2.00000
    481       1.8640      2.00000
    482       1.8644      2.00000
    483       1.8645      2.00000
    484       1.8647      2.00000
    485       1.8648      2.00000
    486       1.9428      2.00000
    487       1.9432      2.00000
    488       1.9434      2.00000
    489       2.1116      2.00000
    490       2.1119      2.00000
    491       2.1123      2.00000
    492       2.1886      2.00000
    493       2.1889      2.00000
    494       2.1892      2.00000
    495       2.2263      2.00000
    496       2.2270      2.00000
    497       2.2271      2.00000
    498       2.2969      2.00000
    499       2.2970      2.00000
    500       2.2972      2.00000
    501       2.4084      2.00000
    502       2.4849      2.00000
    503       2.4854      2.00000
    504       2.4857      2.00000
    505       2.4858      2.00000
    506       2.4859      2.00000
    507       2.4861      2.00000
    508       2.5185      2.00000
    509       2.5186      2.00000
    510       2.5189      2.00000
    511       2.7330      2.00000
    512       2.7330      2.00000
    513       2.7334      2.00000
    514       2.8322      2.00000
    515       2.8324      2.00000
    516       2.8327      2.00000
    517       2.9468      2.00000
    518       2.9470      2.00000
    519       2.9473      2.00000
    520       2.9610      2.00000
    521       2.9622      2.00000
    522       2.9625      2.00000
    523       2.9625      2.00000
    524       2.9627      2.00000
    525       2.9628      2.00000
    526       3.0378      2.00000
    527       3.0380      2.00000
    528       3.0384      2.00000
    529       3.1920      2.00000
    530       3.1928      2.00000
    531       3.1930      2.00000
    532       3.2823      2.00000
    533       3.2823      2.00000
    534       3.2827      2.00000
    535       3.3376      2.00000
    536       3.3378      2.00000
    537       3.3382      2.00000
    538       3.3441      2.00000
    539       3.3448      2.00000
    540       3.3450      2.00000
    541       3.4105      2.00000
    542       3.4117      2.00000
    543       3.4122      2.00000
    544       3.4122      2.00000
    545       3.4122      2.00000
    546       3.4123      2.00000
    547       3.5021      2.00000
    548       3.5033      2.00000
    549       3.5033      2.00000
    550       3.5633      2.00000
    551       3.5634      2.00000
    552       3.5638      2.00000
    553       3.6652      2.00000
    554       3.6653      2.00000
    555       3.6657      2.00000
    556       3.8857      2.00000
    557       3.8863      2.00000
    558       3.9765      2.00000
    559       3.9766      2.00000
    560       3.9770      2.00000
    561       4.0020      2.00000
    562       4.0474      2.00000
    563       4.0479      2.00000
    564       4.0666      2.00000
    565       4.0679      2.00000
    566       4.0680      2.00000
    567       4.1198      2.00000
    568       4.1199      2.00000
    569       4.1205      2.00000
    570       4.3681      2.00000
    571       4.3682      2.00000
    572       4.3688      2.00000
    573       4.6358      2.00000
    574       4.6364      2.00000
    575       4.9591      2.00000
    576       4.9597      2.00000
    577       5.9339      0.00000
    578       5.9342      0.00000
    579       5.9342      0.00000
    580       5.9535      0.00000
    581       6.1233      0.00000
    582       6.2206      0.00000
    583       6.2211      0.00000
    584       6.2211      0.00000
    585       6.3084      0.00000
    586       6.3089      0.00000
    587       6.3090      0.00000
    588       6.5317      0.00000
    589       6.5319      0.00000
    590       6.5321      0.00000
    591       6.5428      0.00000
    592       6.5432      0.00000
    593       6.5435      0.00000
    594       6.5596      0.00000
    595       6.5601      0.00000
    596       6.5608      0.00000
    597       6.7113      0.00000
    598       6.7701      0.00000
    599       6.7705      0.00000
    600       6.7707      0.00000
    601       6.7856      0.00000
    602       6.7859      0.00000
    603       6.7863      0.00000
    604       6.8718      0.00000
    605       6.8719      0.00000
    606       6.8721      0.00000
    607       6.8978      0.00000
    608       6.9735      0.00000
    609       6.9738      0.00000
    610       6.9740      0.00000
    611       6.9823      0.00000
    612       6.9824      0.00000
    613       6.9833      0.00000
    614       6.9833      0.00000
    615       6.9833      0.00000
    616       6.9837      0.00000
    617       7.0276      0.00000
    618       7.0281      0.00000
    619       7.0282      0.00000
    620       7.1160      0.00000
    621       7.1163      0.00000
    622       7.1165      0.00000
    623       7.2777      0.00000
    624       7.2778      0.00000
    625       7.2786      0.00000
    626       7.2786      0.00000
    627       7.2787      0.00000
    628       7.2794      0.00000
    629       7.4298      0.00000
    630       7.4301      0.00000
    631       7.4303      0.00000
    632       7.7997      0.00000
    633       7.7997      0.00000
    634       7.8004      0.00000
    635       7.8005      0.00000
    636       7.8005      0.00000
    637       7.8012      0.00000
    638       7.8481      0.00000
    639       7.8486      0.00000
    640       7.8504      0.00000
    641       7.8507      0.00000
    642       7.8512      0.00000
    643       7.8676      0.00000
    644       7.8677      0.00000
    645       7.8683      0.00000
    646       8.0460      0.00000
    647       8.0460      0.00000
    648       8.0471      0.00000
    649       8.1003      0.00000
    650       8.1005      0.00000
    651       8.1012      0.00000
    652       8.1012      0.00000
    653       8.1012      0.00000
    654       8.1015      0.00000
    655       8.1578      0.00000
    656       8.2901      0.00000
    657       8.2906      0.00000
    658       8.3254      0.00000
    659       8.3255      0.00000
    660       8.3261      0.00000
    661       8.4401      0.00000
    662       8.4403      0.00000
    663       8.4405      0.00000
    664       8.5278      0.00000
    665       8.5279      0.00000
    666       8.5287      0.00000
    667       8.6018      0.00000
    668       8.6020      0.00000
    669       8.6027      0.00000
    670       8.6879      0.00000
    671       8.6886      0.00000
    672       8.7035      0.00000
    673       8.7037      0.00000
    674       8.7046      0.00000
    675       8.7047      0.00000
    676       8.7047      0.00000
    677       8.7051      0.00000
    678       8.7331      0.00000
    679       8.7338      0.00000
    680       8.8938      0.00000
    681       8.8939      0.00000
    682       8.8943      0.00000
    683       8.9653      0.00000
    684       8.9654      0.00000
    685       8.9661      0.00000
    686       8.9878      0.00000
    687       8.9878      0.00000
    688       8.9886      0.00000
    689       9.0853      0.00000
    690       9.0857      0.00000
    691       9.0863      0.00000
    692       9.1002      0.00000
    693       9.1004      0.00000
    694       9.1010      0.00000
    695       9.1012      0.00000
    696       9.1013      0.00000
    697       9.1014      0.00000
    698       9.1709      0.00000
    699       9.1710      0.00000
    700       9.1716      0.00000
    701       9.2188      0.00000
    702       9.2192      0.00000
    703       9.2201      0.00000
    704       9.4171      0.00000

 k-point     5 :       0.3333    0.3333    0.0000
  band No.  band energies     occupation 
      1     -19.2238      2.00000
      2     -19.2233      2.00000
      3     -19.2233      2.00000
      4     -19.2227      2.00000
      5     -19.2214      2.00000
      6     -19.2214      2.00000
      7     -19.2213      2.00000
      8     -19.2213      2.00000
      9     -19.2212      2.00000
     10     -19.2212      2.00000
     11     -19.2212      2.00000
     12     -19.2211      2.00000
     13     -19.2207      2.00000
     14     -19.2207      2.00000
     15     -19.2207      2.00000
     16     -19.2207      2.00000
     17     -19.2206      2.00000
     18     -19.2205      2.00000
     19     -19.2204      2.00000
     20     -19.2204      2.00000
     21     -19.2203      2.00000
     22     -19.2203      2.00000
     23     -19.2197      2.00000
     24     -19.2193      2.00000
     25     -19.2193      2.00000
     26     -19.2192      2.00000
     27     -19.2192      2.00000
     28     -19.2189      2.00000
     29     -19.2188      2.00000
     30     -19.2188      2.00000
     31     -19.2188      2.00000
     32     -19.2187      2.00000
     33     -19.2187      2.00000
     34     -19.2186      2.00000
     35     -19.2186      2.00000
     36     -19.2185      2.00000
     37     -19.2185      2.00000
     38     -19.2185      2.00000
     39     -19.2185      2.00000
     40     -19.2185      2.00000
     41     -19.2184      2.00000
     42     -19.2184      2.00000
     43     -19.2184      2.00000
     44     -19.2184      2.00000
     45     -19.2183      2.00000
     46     -19.2183      2.00000
     47     -19.2183      2.00000
     48     -19.2182      2.00000
     49     -19.2181      2.00000
     50     -19.2181      2.00000
     51     -19.2181      2.00000
     52     -19.2180      2.00000
     53     -19.2180      2.00000
     54     -19.2179      2.00000
     55     -19.2179      2.00000
     56     -19.2178      2.00000
     57     -19.2178      2.00000
     58     -19.2177      2.00000
     59     -19.2177      2.00000
     60     -19.2177      2.00000
     61     -19.2176      2.00000
     62     -19.2176      2.00000
     63     -19.2176      2.00000
     64     -19.2175      2.00000
     65     -19.2171      2.00000
     66     -19.2171      2.00000
     67     -19.2162      2.00000
     68     -19.2162      2.00000
     69     -19.2161      2.00000
     70     -19.2161      2.00000
     71     -19.2155      2.00000
     72     -19.2155      2.00000
     73     -19.2154      2.00000
     74     -19.2154      2.00000
     75     -19.2152      2.00000
     76     -19.2152      2.00000
     77     -19.2144      2.00000
     78     -19.2144      2.00000
     79     -19.2144      2.00000
     80     -19.2143      2.00000
     81     -19.2140      2.00000
     82     -19.2140      2.00000
     83     -19.2139      2.00000
     84     -19.2138      2.00000
     85     -19.2136      2.00000
     86     -19.2136      2.00000
     87     -19.2135      2.00000
     88     -19.2135      2.00000
     89     -19.2134      2.00000
     90     -19.2133      2.00000
     91     -19.2133      2.00000
     92     -19.2133      2.00000
     93     -19.2132      2.00000
     94     -19.2132      2.00000
     95     -19.2132      2.00000
     96     -19.2132      2.00000
     97     -19.2132      2.00000
     98     -19.2131      2.00000
     99     -19.2131      2.00000
    100     -19.2131      2.00000
    101     -19.2131      2.00000
    102     -19.2130      2.00000
    103     -19.2130      2.00000
    104     -19.2130      2.00000
    105     -19.2130      2.00000
    106     -19.2130      2.00000
    107     -19.2129      2.00000
    108     -19.2129      2.00000
    109     -19.2129      2.00000
    110     -19.2129      2.00000
    111     -19.2128      2.00000
    112     -19.2128      2.00000
    113     -19.2128      2.00000
    114     -19.2128      2.00000
    115     -19.2128      2.00000
    116     -19.2127      2.00000
    117     -19.2127      2.00000
    118     -19.2127      2.00000
    119     -19.2127      2.00000
    120     -19.2127      2.00000
    121     -19.2127      2.00000
    122     -19.2126      2.00000
    123     -19.2126      2.00000
    124     -19.2126      2.00000
    125     -19.2126      2.00000
    126     -19.2125      2.00000
    127     -19.2125      2.00000
    128     -19.2125      2.00000
    129     -19.2125      2.00000
    130     -19.2125      2.00000
    131     -19.2124      2.00000
    132     -19.2124      2.00000
    133     -19.2124      2.00000
    134     -19.2123      2.00000
    135     -19.2123      2.00000
    136     -19.2123      2.00000
    137     -19.2119      2.00000
    138     -19.2119      2.00000
    139     -19.2118      2.00000
    140     -19.2117      2.00000
    141     -19.2108      2.00000
    142     -19.2108      2.00000
    143     -19.2107      2.00000
    144     -19.2107      2.00000
    145     -19.2107      2.00000
    146     -19.2107      2.00000
    147     -19.2106      2.00000
    148     -19.2105      2.00000
    149     -19.2105      2.00000
    150     -19.2105      2.00000
    151     -19.2104      2.00000
    152     -19.2104      2.00000
    153     -19.2103      2.00000
    154     -19.2103      2.00000
    155     -19.2103      2.00000
    156     -19.2103      2.00000
    157     -19.2102      2.00000
    158     -19.2102      2.00000
    159     -19.2101      2.00000
    160     -19.2101      2.00000
    161     -19.2101      2.00000
    162     -19.2101      2.00000
    163     -19.2100      2.00000
    164     -19.2100      2.00000
    165     -19.2099      2.00000
    166     -19.2099      2.00000
    167     -19.2097      2.00000
    168     -19.2097      2.00000
    169     -19.2091      2.00000
    170     -19.2091      2.00000
    171     -19.2091      2.00000
    172     -19.2091      2.00000
    173     -19.2090      2.00000
    174     -19.2090      2.00000
    175     -19.2089      2.00000
    176     -19.2089      2.00000
    177     -19.2089      2.00000
    178     -19.2089      2.00000
    179     -19.2088      2.00000
    180     -19.2087      2.00000
    181     -19.2081      2.00000
    182     -19.2081      2.00000
    183     -19.2080      2.00000
    184     -19.2080      2.00000
    185     -19.2080      2.00000
    186     -19.2079      2.00000
    187     -19.2078      2.00000
    188     -19.2078      2.00000
    189     -19.2072      2.00000
    190     -19.2072      2.00000
    191     -19.2072      2.00000
    192     -19.2071      2.00000
    193     -19.1961      2.00000
    194     -19.1960      2.00000
    195     -19.1960      2.00000
    196     -19.1954      2.00000
    197     -19.1951      2.00000
    198     -19.1951      2.00000
    199     -19.1949      2.00000
    200     -19.1948      2.00000
    201     -19.1948      2.00000
    202     -19.1948      2.00000
    203     -19.1947      2.00000
    204     -19.1946      2.00000
    205     -19.1946      2.00000
    206     -19.1945      2.00000
    207     -19.1945      2.00000
    208     -19.1945      2.00000
    209     -19.1944      2.00000
    210     -19.1944      2.00000
    211     -19.1941      2.00000
    212     -19.1940      2.00000
    213     -19.1939      2.00000
    214     -19.1938      2.00000
    215     -19.1938      2.00000
    216     -19.1938      2.00000
    217     -19.1937      2.00000
    218     -19.1937      2.00000
    219     -19.1935      2.00000
    220     -19.1933      2.00000
    221     -19.1933      2.00000
    222     -19.1932      2.00000
    223     -19.1932      2.00000
    224     -19.1931      2.00000
    225     -19.1931      2.00000
    226     -19.1931      2.00000
    227     -19.1930      2.00000
    228     -19.1930      2.00000
    229     -19.1930      2.00000
    230     -19.1929      2.00000
    231     -19.1929      2.00000
    232     -19.1929      2.00000
    233     -19.1929      2.00000
    234     -19.1929      2.00000
    235     -19.1928      2.00000
    236     -19.1928      2.00000
    237     -19.1928      2.00000
    238     -19.1927      2.00000
    239     -19.1927      2.00000
    240     -19.1926      2.00000
    241     -19.1926      2.00000
    242     -19.1925      2.00000
    243     -19.1925      2.00000
    244     -19.1924      2.00000
    245     -19.1924      2.00000
    246     -19.1923      2.00000
    247     -19.1923      2.00000
    248     -19.1922      2.00000
    249     -19.1920      2.00000
    250     -19.1919      2.00000
    251     -19.1918      2.00000
    252     -19.1918      2.00000
    253     -19.1918      2.00000
    254     -19.1917      2.00000
    255     -19.1917      2.00000
    256     -19.1917      2.00000
    257     -19.1916      2.00000
    258     -19.1915      2.00000
    259     -19.1914      2.00000
    260     -19.1914      2.00000
    261     -19.1914      2.00000
    262     -19.1914      2.00000
    263     -19.1914      2.00000
    264     -19.1913      2.00000
    265     -19.1913      2.00000
    266     -19.1913      2.00000
    267     -19.1912      2.00000
    268     -19.1912      2.00000
    269     -19.1912      2.00000
    270     -19.1911      2.00000
    271     -19.1911      2.00000
    272     -19.1911      2.00000
    273     -19.1910      2.00000
    274     -19.1910      2.00000
    275     -19.1909      2.00000
    276     -19.1909      2.00000
    277     -19.1908      2.00000
    278     -19.1908      2.00000
    279     -19.1908      2.00000
    280     -19.1907      2.00000
    281     -19.1907      2.00000
    282     -19.1906      2.00000
    283     -19.1906      2.00000
    284     -19.1905      2.00000
    285     -19.1905      2.00000
    286     -19.1905      2.00000
    287     -19.1905      2.00000
    288     -19.1904      2.00000
    289     -19.1904      2.00000
    290     -19.1903      2.00000
    291     -19.1903      2.00000
    292     -19.1903      2.00000
    293     -19.1903      2.00000
    294     -19.1902      2.00000
    295     -19.1902      2.00000
    296     -19.1901      2.00000
    297     -19.1901      2.00000
    298     -19.1901      2.00000
    299     -19.1900      2.00000
    300     -19.1900      2.00000
    301     -19.1899      2.00000
    302     -19.1899      2.00000
    303     -19.1895      2.00000
    304     -19.1895      2.00000
    305     -19.1895      2.00000
    306     -19.1894      2.00000
    307     -19.1894      2.00000
    308     -19.1893      2.00000
    309     -19.1893      2.00000
    310     -19.1892      2.00000
    311     -19.1892      2.00000
    312     -19.1891      2.00000
    313     -19.1891      2.00000
    314     -19.1890      2.00000
    315     -19.1889      2.00000
    316     -19.1888      2.00000
    317     -19.1887      2.00000
    318     -19.1882      2.00000
    319     -19.1881      2.00000
    320     -19.1881      2.00000
    321      -6.9649      2.00000
    322      -6.6257      2.00000
    323      -6.5476      2.00000
    324      -6.5472      2.00000
    325      -6.5471      2.00000
    326      -6.5467      2.00000
    327      -5.9667      2.00000
    328      -5.9662      2.00000
    329      -5.9662      2.00000
    330      -5.9656      2.00000
    331      -5.9167      2.00000
    332      -5.9163      2.00000
    333      -5.9162      2.00000
    334      -5.9158      2.00000
    335      -5.6685      2.00000
    336      -5.6679      2.00000
    337      -5.6679      2.00000
    338      -5.6674      2.00000
    339      -5.3170      2.00000
    340      -5.3166      2.00000
    341      -5.3166      2.00000
    342      -5.3162      2.00000
    343      -5.3031      2.00000
    344      -5.1436      2.00000
    345      -5.1431      2.00000
    346      -5.1430      2.00000
    347      -5.1424      2.00000
    348      -5.0357      2.00000
    349      -5.0352      2.00000
    350      -5.0351      2.00000
    351      -5.0346      2.00000
    352      -4.6702      2.00000
    353      -4.6691      2.00000
    354      -4.6691      2.00000
    355      -4.6690      2.00000
    356      -4.6690      2.00000
    357      -4.6689      2.00000
    358      -4.6689      2.00000
    359      -4.6678      2.00000
    360      -4.5776      2.00000
    361      -4.5771      2.00000
    362      -4.5771      2.00000
    363      -4.5767      2.00000
    364      -4.4957      2.00000
    365      -4.4947      2.00000
    366      -4.4946      2.00000
    367      -4.4946      2.00000
    368      -4.4946      2.00000
    369      -4.4946      2.00000
    370      -4.4945      2.00000
    371      -4.4935      2.00000
    372      -4.3641      2.00000
    373      -3.9058      2.00000
    374      -3.9054      2.00000
    375      -3.9054      2.00000
    376      -3.9050      2.00000
    377      -3.8945      2.00000
    378      -3.8941      2.00000
    379      -3.8940      2.00000
    380      -3.8935      2.00000
    381      -3.5414      2.00000
    382      -3.5414      2.00000
    383      -3.4971      2.00000
    384      -3.4971      2.00000
    385      -2.7030      2.00000
    386      -2.7023      2.00000
    387      -2.6276      2.00000
    388      -2.6268      2.00000
    389      -2.2765      2.00000
    390      -2.2759      2.00000
    391      -2.2759      2.00000
    392      -2.2753      2.00000
    393      -2.1794      2.00000
    394      -2.1788      2.00000
    395      -2.1788      2.00000
    396      -2.1781      2.00000
    397      -1.8900      2.00000
    398      -1.8887      2.00000
    399      -1.8886      2.00000
    400      -1.8886      2.00000
    401      -1.8885      2.00000
    402      -1.8884      2.00000
    403      -1.8884      2.00000
    404      -1.8871      2.00000
    405      -1.7931      2.00000
    406      -1.7543      2.00000
    407      -1.7536      2.00000
    408      -1.7536      2.00000
    409      -1.7529      2.00000
    410      -1.5193      2.00000
    411      -1.5187      2.00000
    412      -1.5186      2.00000
    413      -1.5180      2.00000
    414      -1.3724      2.00000
    415      -1.3710      2.00000
    416      -1.3710      2.00000
    417      -1.3710      2.00000
    418      -1.3709      2.00000
    419      -1.3708      2.00000
    420      -1.3708      2.00000
    421      -1.3694      2.00000
    422      -1.1902      2.00000
    423      -1.1895      2.00000
    424      -1.1894      2.00000
    425      -1.1887      2.00000
    426      -0.8863      2.00000
    427      -0.8858      2.00000
    428      -0.8857      2.00000
    429      -0.8852      2.00000
    430      -0.4290      2.00000
    431      -0.0575      2.00000
    432      -0.0570      2.00000
    433      -0.0568      2.00000
    434      -0.0563      2.00000
    435      -0.0300      2.00000
    436      -0.0293      2.00000
    437      -0.0293      2.00000
    438      -0.0286      2.00000
    439       0.6822      2.00000
    440       0.6829      2.00000
    441       0.6829      2.00000
    442       0.6836      2.00000
    443       1.0025      2.00000
    444       1.0028      2.00000
    445       1.0029      2.00000
    446       1.0032      2.00000
    447       1.0067      2.00000
    448       1.0068      2.00000
    449       1.0069      2.00000
    450       1.0071      2.00000
    451       1.0454      2.00000
    452       1.0456      2.00000
    453       1.0458      2.00000
    454       1.0459      2.00000
    455       1.5119      2.00000
    456       1.5120      2.00000
    457       1.5590      2.00000
    458       1.5590      2.00000
    459       1.5951      2.00000
    460       1.5954      2.00000
    461       1.5956      2.00000
    462       1.5958      2.00000
    463       1.5958      2.00000
    464       1.5961      2.00000
    465       1.5963      2.00000
    466       1.5966      2.00000
    467       1.7133      2.00000
    468       1.7134      2.00000
    469       1.7137      2.00000
    470       1.7138      2.00000
    471       1.7138      2.00000
    472       1.7139      2.00000
    473       1.7142      2.00000
    474       1.7143      2.00000
    475       1.7995      2.00000
    476       1.8000      2.00000
    477       1.8003      2.00000
    478       1.8007      2.00000
    479       1.9520      2.00000
    480       1.9523      2.00000
    481       1.9653      2.00000
    482       1.9653      2.00000
    483       2.0016      2.00000
    484       2.0021      2.00000
    485       2.0021      2.00000
    486       2.0025      2.00000
    487       2.0384      2.00000
    488       2.0387      2.00000
    489       2.0389      2.00000
    490       2.0392      2.00000
    491       2.0751      2.00000
    492       2.0754      2.00000
    493       2.0755      2.00000
    494       2.0758      2.00000
    495       2.3325      2.00000
    496       2.3329      2.00000
    497       2.4804      2.00000
    498       2.4809      2.00000
    499       2.4811      2.00000
    500       2.4812      2.00000
    501       2.4812      2.00000
    502       2.4813      2.00000
    503       2.4814      2.00000
    504       2.4820      2.00000
    505       2.5346      2.00000
    506       2.5662      2.00000
    507       2.5667      2.00000
    508       2.5668      2.00000
    509       2.5673      2.00000
    510       2.6634      2.00000
    511       2.6637      2.00000
    512       2.6678      2.00000
    513       2.6683      2.00000
    514       2.6684      2.00000
    515       2.6689      2.00000
    516       2.7777      2.00000
    517       2.7781      2.00000
    518       2.7782      2.00000
    519       2.7786      2.00000
    520       2.9442      2.00000
    521       2.9446      2.00000
    522       2.9449      2.00000
    523       2.9450      2.00000
    524       2.9450      2.00000
    525       2.9451      2.00000
    526       2.9454      2.00000
    527       2.9458      2.00000
    528       3.0069      2.00000
    529       3.0074      2.00000
    530       3.0074      2.00000
    531       3.0079      2.00000
    532       3.1100      2.00000
    533       3.1105      2.00000
    534       3.1106      2.00000
    535       3.1111      2.00000
    536       3.2379      2.00000
    537       3.2384      2.00000
    538       3.2385      2.00000
    539       3.2391      2.00000
    540       3.4318      2.00000
    541       3.4321      2.00000
    542       3.4322      2.00000
    543       3.4326      2.00000
    544       3.6843      2.00000
    545       3.6846      2.00000
    546       3.6848      2.00000
    547       3.6850      2.00000
    548       3.6964      2.00000
    549       3.6970      2.00000
    550       3.6970      2.00000
    551       3.6976      2.00000
    552       3.7488      2.00000
    553       3.7501      2.00000
    554       3.7503      2.00000
    555       3.7503      2.00000
    556       3.7505      2.00000
    557       3.7506      2.00000
    558       3.7508      2.00000
    559       3.7520      2.00000
    560       3.7793      2.00000
    561       3.7797      2.00000
    562       3.7799      2.00000
    563       3.7803      2.00000
    564       3.8029      2.00000
    565       3.8035      2.00000
    566       3.8037      2.00000
    567       3.8044      2.00000
    568       3.9047      2.00000
    569       3.9052      2.00000
    570       4.0441      2.00000
    571       4.6750      2.00000
    572       4.6758      2.00000
    573       4.7138      2.00000
    574       4.7147      2.00000
    575       4.7148      2.00000
    576       4.7158      2.00000
    577       5.7217      0.00000
    578       5.8500      0.00000
    579       6.3490      0.00000
    580       6.3490      0.00000
    581       6.3823      0.00000
    582       6.3829      0.00000
    583       6.3830      0.00000
    584       6.3836      0.00000
    585       6.4296      0.00000
    586       6.5387      0.00000
    587       6.5389      0.00000
    588       6.5391      0.00000
    589       6.5393      0.00000
    590       6.6420      0.00000
    591       6.6430      0.00000
    592       6.7639      0.00000
    593       6.8300      0.00000
    594       6.8308      0.00000
    595       6.8309      0.00000
    596       6.8310      0.00000
    597       6.8310      0.00000
    598       6.8311      0.00000
    599       6.8312      0.00000
    600       6.8319      0.00000
    601       6.8438      0.00000
    602       6.8440      0.00000
    603       6.8442      0.00000
    604       6.8444      0.00000
    605       6.8572      0.00000
    606       6.8575      0.00000
    607       6.8578      0.00000
    608       6.8582      0.00000
    609       6.9954      0.00000
    610       6.9959      0.00000
    611       6.9961      0.00000
    612       6.9966      0.00000
    613       7.1383      0.00000
    614       7.1386      0.00000
    615       7.1387      0.00000
    616       7.1389      0.00000
    617       7.1866      0.00000
    618       7.2112      0.00000
    619       7.2117      0.00000
    620       7.2118      0.00000
    621       7.2122      0.00000
    622       7.3330      0.00000
    623       7.3659      0.00000
    624       7.3667      0.00000
    625       7.3669      0.00000
    626       7.3669      0.00000
    627       7.3670      0.00000
    628       7.3670      0.00000
    629       7.3672      0.00000
    630       7.3681      0.00000
    631       7.5118      0.00000
    632       7.5328      0.00000
    633       7.5332      0.00000
    634       7.5332      0.00000
    635       7.5337      0.00000
    636       7.7103      0.00000
    637       7.7103      0.00000
    638       8.0044      0.00000
    639       8.0047      0.00000
    640       8.0048      0.00000
    641       8.0051      0.00000
    642       8.0146      0.00000
    643       8.0154      0.00000
    644       8.1258      0.00000
    645       8.1266      0.00000
    646       8.1268      0.00000
    647       8.1269      0.00000
    648       8.1269      0.00000
    649       8.1271      0.00000
    650       8.1273      0.00000
    651       8.1281      0.00000
    652       8.2141      0.00000
    653       8.2145      0.00000
    654       8.2436      0.00000
    655       8.2443      0.00000
    656       8.2443      0.00000
    657       8.2450      0.00000
    658       8.2783      0.00000
    659       8.2787      0.00000
    660       8.2790      0.00000
    661       8.2794      0.00000
    662       8.3550      0.00000
    663       8.3555      0.00000
    664       8.3555      0.00000
    665       8.3560      0.00000
    666       8.3671      0.00000
    667       8.3674      0.00000
    668       8.3680      0.00000
    669       8.3683      0.00000
    670       8.3935      0.00000
    671       8.3938      0.00000
    672       8.3939      0.00000
    673       8.3942      0.00000
    674       8.5094      0.00000
    675       8.5603      0.00000
    676       8.5607      0.00000
    677       8.5610      0.00000
    678       8.5614      0.00000
    679       8.6524      0.00000
    680       8.6528      0.00000
    681       8.6534      0.00000
    682       8.6538      0.00000
    683       8.8673      0.00000
    684       8.8680      0.00000
    685       8.8680      0.00000
    686       8.8687      0.00000
    687       8.9375      0.00000
    688       8.9380      0.00000
    689       8.9381      0.00000
    690       8.9385      0.00000
    691       8.9429      0.00000
    692       8.9436      0.00000
    693       8.9438      0.00000
    694       8.9439      0.00000
    695       8.9439      0.00000
    696       8.9440      0.00000
    697       8.9442      0.00000
    698       8.9451      0.00000
    699       9.1181      0.00000
    700       9.1186      0.00000
    701       9.1195      0.00000
    702       9.1288      0.00000
    703       9.2607      0.00000
    704       9.2668      0.00000

 k-point     6 :       0.0000    0.3333    0.3333
  band No.  band energies     occupation 
      1     -19.2238      2.00000
      2     -19.2233      2.00000
      3     -19.2233      2.00000
      4     -19.2227      2.00000
      5     -19.2214      2.00000
      6     -19.2213      2.00000
      7     -19.2213      2.00000
      8     -19.2213      2.00000
      9     -19.2213      2.00000
     10     -19.2213      2.00000
     11     -19.2212      2.00000
     12     -19.2212      2.00000
     13     -19.2207      2.00000
     14     -19.2207      2.00000
     15     -19.2207      2.00000
     16     -19.2206      2.00000
     17     -19.2206      2.00000
     18     -19.2206      2.00000
     19     -19.2204      2.00000
     20     -19.2203      2.00000
     21     -19.2203      2.00000
     22     -19.2203      2.00000
     23     -19.2196      2.00000
     24     -19.2193      2.00000
     25     -19.2193      2.00000
     26     -19.2192      2.00000
     27     -19.2191      2.00000
     28     -19.2189      2.00000
     29     -19.2189      2.00000
     30     -19.2188      2.00000
     31     -19.2187      2.00000
     32     -19.2187      2.00000
     33     -19.2187      2.00000
     34     -19.2186      2.00000
     35     -19.2185      2.00000
     36     -19.2185      2.00000
     37     -19.2185      2.00000
     38     -19.2185      2.00000
     39     -19.2185      2.00000
     40     -19.2185      2.00000
     41     -19.2184      2.00000
     42     -19.2184      2.00000
     43     -19.2184      2.00000
     44     -19.2183      2.00000
     45     -19.2183      2.00000
     46     -19.2183      2.00000
     47     -19.2183      2.00000
     48     -19.2182      2.00000
     49     -19.2181      2.00000
     50     -19.2181      2.00000
     51     -19.2180      2.00000
     52     -19.2180      2.00000
     53     -19.2180      2.00000
     54     -19.2179      2.00000
     55     -19.2179      2.00000
     56     -19.2179      2.00000
     57     -19.2178      2.00000
     58     -19.2178      2.00000
     59     -19.2177      2.00000
     60     -19.2177      2.00000
     61     -19.2176      2.00000
     62     -19.2176      2.00000
     63     -19.2175      2.00000
     64     -19.2175      2.00000
     65     -19.2173      2.00000
     66     -19.2170      2.00000
     67     -19.2162      2.00000
     68     -19.2162      2.00000
     69     -19.2161      2.00000
     70     -19.2161      2.00000
     71     -19.2155      2.00000
     72     -19.2155      2.00000
     73     -19.2155      2.00000
     74     -19.2154      2.00000
     75     -19.2152      2.00000
     76     -19.2152      2.00000
     77     -19.2144      2.00000
     78     -19.2144      2.00000
     79     -19.2144      2.00000
     80     -19.2143      2.00000
     81     -19.2140      2.00000
     82     -19.2139      2.00000
     83     -19.2139      2.00000
     84     -19.2139      2.00000
     85     -19.2136      2.00000
     86     -19.2136      2.00000
     87     -19.2135      2.00000
     88     -19.2135      2.00000
     89     -19.2134      2.00000
     90     -19.2134      2.00000
     91     -19.2133      2.00000
     92     -19.2133      2.00000
     93     -19.2133      2.00000
     94     -19.2132      2.00000
     95     -19.2132      2.00000
     96     -19.2132      2.00000
     97     -19.2132      2.00000
     98     -19.2131      2.00000
     99     -19.2131      2.00000
    100     -19.2131      2.00000
    101     -19.2130      2.00000
    102     -19.2130      2.00000
    103     -19.2130      2.00000
    104     -19.2130      2.00000
    105     -19.2130      2.00000
    106     -19.2130      2.00000
    107     -19.2129      2.00000
    108     -19.2129      2.00000
    109     -19.2129      2.00000
    110     -19.2129      2.00000
    111     -19.2128      2.00000
    112     -19.2128      2.00000
    113     -19.2128      2.00000
    114     -19.2128      2.00000
    115     -19.2127      2.00000
    116     -19.2127      2.00000
    117     -19.2127      2.00000
    118     -19.2127      2.00000
    119     -19.2127      2.00000
    120     -19.2126      2.00000
    121     -19.2126      2.00000
    122     -19.2126      2.00000
    123     -19.2126      2.00000
    124     -19.2126      2.00000
    125     -19.2126      2.00000
    126     -19.2126      2.00000
    127     -19.2125      2.00000
    128     -19.2125      2.00000
    129     -19.2125      2.00000
    130     -19.2124      2.00000
    131     -19.2124      2.00000
    132     -19.2124      2.00000
    133     -19.2124      2.00000
    134     -19.2124      2.00000
    135     -19.2123      2.00000
    136     -19.2123      2.00000
    137     -19.2119      2.00000
    138     -19.2119      2.00000
    139     -19.2118      2.00000
    140     -19.2118      2.00000
    141     -19.2109      2.00000
    142     -19.2108      2.00000
    143     -19.2108      2.00000
    144     -19.2107      2.00000
    145     -19.2106      2.00000
    146     -19.2106      2.00000
    147     -19.2106      2.00000
    148     -19.2105      2.00000
    149     -19.2105      2.00000
    150     -19.2105      2.00000
    151     -19.2104      2.00000
    152     -19.2104      2.00000
    153     -19.2103      2.00000
    154     -19.2103      2.00000
    155     -19.2103      2.00000
    156     -19.2103      2.00000
    157     -19.2102      2.00000
    158     -19.2102      2.00000
    159     -19.2102      2.00000
    160     -19.2102      2.00000
    161     -19.2102      2.00000
    162     -19.2100      2.00000
    163     -19.2100      2.00000
    164     -19.2100      2.00000
    165     -19.2099      2.00000
    166     -19.2098      2.00000
    167     -19.2098      2.00000
    168     -19.2097      2.00000
    169     -19.2091      2.00000
    170     -19.2091      2.00000
    171     -19.2091      2.00000
    172     -19.2090      2.00000
    173     -19.2090      2.00000
    174     -19.2090      2.00000
    175     -19.2090      2.00000
    176     -19.2090      2.00000
    177     -19.2089      2.00000
    178     -19.2088      2.00000
    179     -19.2088      2.00000
    180     -19.2088      2.00000
    181     -19.2081      2.00000
    182     -19.2081      2.00000
    183     -19.2080      2.00000
    184     -19.2080      2.00000
    185     -19.2080      2.00000
    186     -19.2079      2.00000
    187     -19.2079      2.00000
    188     -19.2078      2.00000
    189     -19.2072      2.00000
    190     -19.2072      2.00000
    191     -19.2072      2.00000
    192     -19.2072      2.00000
    193     -19.1961      2.00000
    194     -19.1960      2.00000
    195     -19.1959      2.00000
    196     -19.1954      2.00000
    197     -19.1952      2.00000
    198     -19.1950      2.00000
    199     -19.1949      2.00000
    200     -19.1949      2.00000
    201     -19.1948      2.00000
    202     -19.1948      2.00000
    203     -19.1947      2.00000
    204     -19.1947      2.00000
    205     -19.1946      2.00000
    206     -19.1946      2.00000
    207     -19.1945      2.00000
    208     -19.1945      2.00000
    209     -19.1944      2.00000
    210     -19.1944      2.00000
    211     -19.1940      2.00000
    212     -19.1940      2.00000
    213     -19.1939      2.00000
    214     -19.1939      2.00000
    215     -19.1938      2.00000
    216     -19.1938      2.00000
    217     -19.1938      2.00000
    218     -19.1938      2.00000
    219     -19.1934      2.00000
    220     -19.1933      2.00000
    221     -19.1933      2.00000
    222     -19.1932      2.00000
    223     -19.1931      2.00000
    224     -19.1931      2.00000
    225     -19.1931      2.00000
    226     -19.1930      2.00000
    227     -19.1929      2.00000
    228     -19.1929      2.00000
    229     -19.1929      2.00000
    230     -19.1929      2.00000
    231     -19.1929      2.00000
    232     -19.1929      2.00000
    233     -19.1928      2.00000
    234     -19.1928      2.00000
    235     -19.1928      2.00000
    236     -19.1928      2.00000
    237     -19.1928      2.00000
    238     -19.1928      2.00000
    239     -19.1927      2.00000
    240     -19.1927      2.00000
    241     -19.1927      2.00000
    242     -19.1925      2.00000
    243     -19.1925      2.00000
    244     -19.1924      2.00000
    245     -19.1924      2.00000
    246     -19.1923      2.00000
    247     -19.1923      2.00000
    248     -19.1923      2.00000
    249     -19.1920      2.00000
    250     -19.1919      2.00000
    251     -19.1918      2.00000
    252     -19.1918      2.00000
    253     -19.1918      2.00000
    254     -19.1917      2.00000
    255     -19.1917      2.00000
    256     -19.1917      2.00000
    257     -19.1916      2.00000
    258     -19.1916      2.00000
    259     -19.1915      2.00000
    260     -19.1915      2.00000
    261     -19.1914      2.00000
    262     -19.1914      2.00000
    263     -19.1914      2.00000
    264     -19.1913      2.00000
    265     -19.1913      2.00000
    266     -19.1913      2.00000
    267     -19.1912      2.00000
    268     -19.1912      2.00000
    269     -19.1912      2.00000
    270     -19.1911      2.00000
    271     -19.1911      2.00000
    272     -19.1910      2.00000
    273     -19.1910      2.00000
    274     -19.1909      2.00000
    275     -19.1909      2.00000
    276     -19.1909      2.00000
    277     -19.1908      2.00000
    278     -19.1908      2.00000
    279     -19.1908      2.00000
    280     -19.1907      2.00000
    281     -19.1907      2.00000
    282     -19.1907      2.00000
    283     -19.1906      2.00000
    284     -19.1906      2.00000
    285     -19.1905      2.00000
    286     -19.1905      2.00000
    287     -19.1905      2.00000
    288     -19.1905      2.00000
    289     -19.1904      2.00000
    290     -19.1904      2.00000
    291     -19.1903      2.00000
    292     -19.1903      2.00000
    293     -19.1902      2.00000
    294     -19.1902      2.00000
    295     -19.1901      2.00000
    296     -19.1901      2.00000
    297     -19.1901      2.00000
    298     -19.1900      2.00000
    299     -19.1900      2.00000
    300     -19.1900      2.00000
    301     -19.1899      2.00000
    302     -19.1899      2.00000
    303     -19.1895      2.00000
    304     -19.1895      2.00000
    305     -19.1895      2.00000
    306     -19.1894      2.00000
    307     -19.1894      2.00000
    308     -19.1893      2.00000
    309     -19.1893      2.00000
    310     -19.1893      2.00000
    311     -19.1891      2.00000
    312     -19.1891      2.00000
    313     -19.1891      2.00000
    314     -19.1890      2.00000
    315     -19.1890      2.00000
    316     -19.1888      2.00000
    317     -19.1887      2.00000
    318     -19.1882      2.00000
    319     -19.1881      2.00000
    320     -19.1881      2.00000
    321      -6.9649      2.00000
    322      -6.6257      2.00000
    323      -6.5477      2.00000
    324      -6.5472      2.00000
    325      -6.5472      2.00000
    326      -6.5466      2.00000
    327      -5.9669      2.00000
    328      -5.9662      2.00000
    329      -5.9662      2.00000
    330      -5.9655      2.00000
    331      -5.9168      2.00000
    332      -5.9162      2.00000
    333      -5.9162      2.00000
    334      -5.9157      2.00000
    335      -5.6686      2.00000
    336      -5.6680      2.00000
    337      -5.6679      2.00000
    338      -5.6672      2.00000
    339      -5.3171      2.00000
    340      -5.3166      2.00000
    341      -5.3166      2.00000
    342      -5.3161      2.00000
    343      -5.3031      2.00000
    344      -5.1438      2.00000
    345      -5.1430      2.00000
    346      -5.1430      2.00000
    347      -5.1423      2.00000
    348      -5.0358      2.00000
    349      -5.0351      2.00000
    350      -5.0351      2.00000
    351      -5.0345      2.00000
    352      -4.6706      2.00000
    353      -4.6691      2.00000
    354      -4.6690      2.00000
    355      -4.6690      2.00000
    356      -4.6690      2.00000
    357      -4.6690      2.00000
    358      -4.6689      2.00000
    359      -4.6675      2.00000
    360      -4.5777      2.00000
    361      -4.5771      2.00000
    362      -4.5771      2.00000
    363      -4.5765      2.00000
    364      -4.4959      2.00000
    365      -4.4946      2.00000
    366      -4.4946      2.00000
    367      -4.4946      2.00000
    368      -4.4946      2.00000
    369      -4.4946      2.00000
    370      -4.4945      2.00000
    371      -4.4933      2.00000
    372      -4.3641      2.00000
    373      -3.9059      2.00000
    374      -3.9054      2.00000
    375      -3.9054      2.00000
    376      -3.9049      2.00000
    377      -3.8944      2.00000
    378      -3.8940      2.00000
    379      -3.8940      2.00000
    380      -3.8937      2.00000
    381      -3.5414      2.00000
    382      -3.5414      2.00000
    383      -3.4971      2.00000
    384      -3.4971      2.00000
    385      -2.7026      2.00000
    386      -2.7026      2.00000
    387      -2.6272      2.00000
    388      -2.6272      2.00000
    389      -2.2765      2.00000
    390      -2.2759      2.00000
    391      -2.2759      2.00000
    392      -2.2753      2.00000
    393      -2.1795      2.00000
    394      -2.1788      2.00000
    395      -2.1787      2.00000
    396      -2.1780      2.00000
    397      -1.8899      2.00000
    398      -1.8887      2.00000
    399      -1.8887      2.00000
    400      -1.8886      2.00000
    401      -1.8885      2.00000
    402      -1.8884      2.00000
    403      -1.8884      2.00000
    404      -1.8872      2.00000
    405      -1.7931      2.00000
    406      -1.7543      2.00000
    407      -1.7536      2.00000
    408      -1.7536      2.00000
    409      -1.7529      2.00000
    410      -1.5194      2.00000
    411      -1.5187      2.00000
    412      -1.5186      2.00000
    413      -1.5179      2.00000
    414      -1.3723      2.00000
    415      -1.3710      2.00000
    416      -1.3710      2.00000
    417      -1.3709      2.00000
    418      -1.3709      2.00000
    419      -1.3709      2.00000
    420      -1.3708      2.00000
    421      -1.3695      2.00000
    422      -1.1902      2.00000
    423      -1.1895      2.00000
    424      -1.1895      2.00000
    425      -1.1887      2.00000
    426      -0.8865      2.00000
    427      -0.8858      2.00000
    428      -0.8858      2.00000
    429      -0.8850      2.00000
    430      -0.4290      2.00000
    431      -0.0577      2.00000
    432      -0.0569      2.00000
    433      -0.0569      2.00000
    434      -0.0561      2.00000
    435      -0.0300      2.00000
    436      -0.0293      2.00000
    437      -0.0293      2.00000
    438      -0.0285      2.00000
    439       0.6822      2.00000
    440       0.6829      2.00000
    441       0.6829      2.00000
    442       0.6836      2.00000
    443       1.0026      2.00000
    444       1.0028      2.00000
    445       1.0029      2.00000
    446       1.0032      2.00000
    447       1.0066      2.00000
    448       1.0068      2.00000
    449       1.0070      2.00000
    450       1.0072      2.00000
    451       1.0454      2.00000
    452       1.0455      2.00000
    453       1.0459      2.00000
    454       1.0460      2.00000
    455       1.5119      2.00000
    456       1.5119      2.00000
    457       1.5590      2.00000
    458       1.5590      2.00000
    459       1.5953      2.00000
    460       1.5955      2.00000
    461       1.5955      2.00000
    462       1.5958      2.00000
    463       1.5959      2.00000
    464       1.5962      2.00000
    465       1.5962      2.00000
    466       1.5964      2.00000
    467       1.7132      2.00000
    468       1.7134      2.00000
    469       1.7135      2.00000
    470       1.7138      2.00000
    471       1.7138      2.00000
    472       1.7141      2.00000
    473       1.7142      2.00000
    474       1.7144      2.00000
    475       1.7995      2.00000
    476       1.8001      2.00000
    477       1.8001      2.00000
    478       1.8007      2.00000
    479       1.9521      2.00000
    480       1.9522      2.00000
    481       1.9653      2.00000
    482       1.9653      2.00000
    483       2.0014      2.00000
    484       2.0021      2.00000
    485       2.0021      2.00000
    486       2.0026      2.00000
    487       2.0385      2.00000
    488       2.0385      2.00000
    489       2.0391      2.00000
    490       2.0391      2.00000
    491       2.0750      2.00000
    492       2.0753      2.00000
    493       2.0756      2.00000
    494       2.0759      2.00000
    495       2.3327      2.00000
    496       2.3327      2.00000
    497       2.4804      2.00000
    498       2.4808      2.00000
    499       2.4811      2.00000
    500       2.4811      2.00000
    501       2.4813      2.00000
    502       2.4813      2.00000
    503       2.4816      2.00000
    504       2.4819      2.00000
    505       2.5346      2.00000
    506       2.5660      2.00000
    507       2.5667      2.00000
    508       2.5667      2.00000
    509       2.5674      2.00000
    510       2.6636      2.00000
    511       2.6636      2.00000
    512       2.6680      2.00000
    513       2.6683      2.00000
    514       2.6683      2.00000
    515       2.6687      2.00000
    516       2.7779      2.00000
    517       2.7779      2.00000
    518       2.7783      2.00000
    519       2.7784      2.00000
    520       2.9441      2.00000
    521       2.9446      2.00000
    522       2.9449      2.00000
    523       2.9450      2.00000
    524       2.9450      2.00000
    525       2.9451      2.00000
    526       2.9454      2.00000
    527       2.9459      2.00000
    528       3.0068      2.00000
    529       3.0074      2.00000
    530       3.0075      2.00000
    531       3.0080      2.00000
    532       3.1098      2.00000
    533       3.1105      2.00000
    534       3.1105      2.00000
    535       3.1112      2.00000
    536       3.2382      2.00000
    537       3.2385      2.00000
    538       3.2385      2.00000
    539       3.2388      2.00000
    540       3.4317      2.00000
    541       3.4321      2.00000
    542       3.4323      2.00000
    543       3.4327      2.00000
    544       3.6841      2.00000
    545       3.6847      2.00000
    546       3.6847      2.00000
    547       3.6851      2.00000
    548       3.6963      2.00000
    549       3.6970      2.00000
    550       3.6970      2.00000
    551       3.6978      2.00000
    552       3.7497      2.00000
    553       3.7502      2.00000
    554       3.7503      2.00000
    555       3.7503      2.00000
    556       3.7505      2.00000
    557       3.7506      2.00000
    558       3.7507      2.00000
    559       3.7513      2.00000
    560       3.7792      2.00000
    561       3.7796      2.00000
    562       3.7800      2.00000
    563       3.7804      2.00000
    564       3.8032      2.00000
    565       3.8036      2.00000
    566       3.8037      2.00000
    567       3.8040      2.00000
    568       3.9049      2.00000
    569       3.9050      2.00000
    570       4.0441      2.00000
    571       4.6754      2.00000
    572       4.6754      2.00000
    573       4.7145      2.00000
    574       4.7148      2.00000
    575       4.7148      2.00000
    576       4.7150      2.00000
    577       5.7217      0.00000
    578       5.8500      0.00000
    579       6.3490      0.00000
    580       6.3490      0.00000
    581       6.3828      0.00000
    582       6.3829      0.00000
    583       6.3829      0.00000
    584       6.3831      0.00000
    585       6.4296      0.00000
    586       6.5386      0.00000
    587       6.5390      0.00000
    588       6.5390      0.00000
    589       6.5393      0.00000
    590       6.6425      0.00000
    591       6.6425      0.00000
    592       6.7639      0.00000
    593       6.8301      0.00000
    594       6.8305      0.00000
    595       6.8309      0.00000
    596       6.8309      0.00000
    597       6.8311      0.00000
    598       6.8311      0.00000
    599       6.8314      0.00000
    600       6.8318      0.00000
    601       6.8438      0.00000
    602       6.8441      0.00000
    603       6.8441      0.00000
    604       6.8444      0.00000
    605       6.8572      0.00000
    606       6.8573      0.00000
    607       6.8580      0.00000
    608       6.8581      0.00000
    609       6.9959      0.00000
    610       6.9960      0.00000
    611       6.9960      0.00000
    612       6.9961      0.00000
    613       7.1382      0.00000
    614       7.1386      0.00000
    615       7.1386      0.00000
    616       7.1390      0.00000
    617       7.1866      0.00000
    618       7.2115      0.00000
    619       7.2117      0.00000
    620       7.2117      0.00000
    621       7.2119      0.00000
    622       7.3330      0.00000
    623       7.3661      0.00000
    624       7.3663      0.00000
    625       7.3669      0.00000
    626       7.3669      0.00000
    627       7.3670      0.00000
    628       7.3670      0.00000
    629       7.3677      0.00000
    630       7.3678      0.00000
    631       7.5118      0.00000
    632       7.5328      0.00000
    633       7.5331      0.00000
    634       7.5334      0.00000
    635       7.5337      0.00000
    636       7.7103      0.00000
    637       7.7103      0.00000
    638       8.0046      0.00000
    639       8.0046      0.00000
    640       8.0050      0.00000
    641       8.0050      0.00000
    642       8.0150      0.00000
    643       8.0150      0.00000
    644       8.1262      0.00000
    645       8.1263      0.00000
    646       8.1269      0.00000
    647       8.1269      0.00000
    648       8.1270      0.00000
    649       8.1270      0.00000
    650       8.1276      0.00000
    651       8.1277      0.00000
    652       8.2143      0.00000
    653       8.2143      0.00000
    654       8.2439      0.00000
    655       8.2443      0.00000
    656       8.2443      0.00000
    657       8.2448      0.00000
    658       8.2784      0.00000
    659       8.2784      0.00000
    660       8.2793      0.00000
    661       8.2793      0.00000
    662       8.3551      0.00000
    663       8.3553      0.00000
    664       8.3557      0.00000
    665       8.3559      0.00000
    666       8.3671      0.00000
    667       8.3677      0.00000
    668       8.3677      0.00000
    669       8.3683      0.00000
    670       8.3935      0.00000
    671       8.3937      0.00000
    672       8.3940      0.00000
    673       8.3942      0.00000
    674       8.5094      0.00000
    675       8.5603      0.00000
    676       8.5609      0.00000
    677       8.5609      0.00000
    678       8.5614      0.00000
    679       8.6525      0.00000
    680       8.6531      0.00000
    681       8.6531      0.00000
    682       8.6537      0.00000
    683       8.8672      0.00000
    684       8.8680      0.00000
    685       8.8680      0.00000
    686       8.8688      0.00000
    687       8.9375      0.00000
    688       8.9380      0.00000
    689       8.9381      0.00000
    690       8.9385      0.00000
    691       8.9430      0.00000
    692       8.9431      0.00000
    693       8.9438      0.00000
    694       8.9438      0.00000
    695       8.9439      0.00000
    696       8.9440      0.00000
    697       8.9448      0.00000
    698       8.9449      0.00000
    699       9.1180      0.00000
    700       9.1183      0.00000
    701       9.1188      0.00000
    702       9.1207      0.00000
    703       9.2616      0.00000
    704       9.2691      0.00000

 k-point     7 :      -0.3333    0.3333    0.0000
  band No.  band energies     occupation 
      1     -19.2229      2.00000
      2     -19.2229      2.00000
      3     -19.2229      2.00000
      4     -19.2228      2.00000
      5     -19.2223      2.00000
      6     -19.2220      2.00000
      7     -19.2220      2.00000
      8     -19.2219      2.00000
      9     -19.2219      2.00000
     10     -19.2217      2.00000
     11     -19.2217      2.00000
     12     -19.2206      2.00000
     13     -19.2205      2.00000
     14     -19.2204      2.00000
     15     -19.2203      2.00000
     16     -19.2202      2.00000
     17     -19.2201      2.00000
     18     -19.2200      2.00000
     19     -19.2200      2.00000
     20     -19.2199      2.00000
     21     -19.2198      2.00000
     22     -19.2197      2.00000
     23     -19.2197      2.00000
     24     -19.2191      2.00000
     25     -19.2191      2.00000
     26     -19.2191      2.00000
     27     -19.2190      2.00000
     28     -19.2190      2.00000
     29     -19.2189      2.00000
     30     -19.2189      2.00000
     31     -19.2189      2.00000
     32     -19.2189      2.00000
     33     -19.2188      2.00000
     34     -19.2188      2.00000
     35     -19.2187      2.00000
     36     -19.2187      2.00000
     37     -19.2187      2.00000
     38     -19.2187      2.00000
     39     -19.2186      2.00000
     40     -19.2186      2.00000
     41     -19.2185      2.00000
     42     -19.2185      2.00000
     43     -19.2184      2.00000
     44     -19.2184      2.00000
     45     -19.2184      2.00000
     46     -19.2183      2.00000
     47     -19.2182      2.00000
     48     -19.2181      2.00000
     49     -19.2181      2.00000
     50     -19.2181      2.00000
     51     -19.2181      2.00000
     52     -19.2180      2.00000
     53     -19.2180      2.00000
     54     -19.2180      2.00000
     55     -19.2180      2.00000
     56     -19.2179      2.00000
     57     -19.2179      2.00000
     58     -19.2178      2.00000
     59     -19.2178      2.00000
     60     -19.2178      2.00000
     61     -19.2177      2.00000
     62     -19.2177      2.00000
     63     -19.2177      2.00000
     64     -19.2176      2.00000
     65     -19.2171      2.00000
     66     -19.2166      2.00000
     67     -19.2163      2.00000
     68     -19.2163      2.00000
     69     -19.2163      2.00000
     70     -19.2162      2.00000
     71     -19.2154      2.00000
     72     -19.2154      2.00000
     73     -19.2152      2.00000
     74     -19.2151      2.00000
     75     -19.2150      2.00000
     76     -19.2145      2.00000
     77     -19.2144      2.00000
     78     -19.2144      2.00000
     79     -19.2143      2.00000
     80     -19.2143      2.00000
     81     -19.2140      2.00000
     82     -19.2140      2.00000
     83     -19.2139      2.00000
     84     -19.2139      2.00000
     85     -19.2138      2.00000
     86     -19.2138      2.00000
     87     -19.2138      2.00000
     88     -19.2137      2.00000
     89     -19.2137      2.00000
     90     -19.2136      2.00000
     91     -19.2136      2.00000
     92     -19.2135      2.00000
     93     -19.2135      2.00000
     94     -19.2135      2.00000
     95     -19.2134      2.00000
     96     -19.2133      2.00000
     97     -19.2133      2.00000
     98     -19.2132      2.00000
     99     -19.2132      2.00000
    100     -19.2132      2.00000
    101     -19.2131      2.00000
    102     -19.2131      2.00000
    103     -19.2131      2.00000
    104     -19.2131      2.00000
    105     -19.2131      2.00000
    106     -19.2130      2.00000
    107     -19.2130      2.00000
    108     -19.2130      2.00000
    109     -19.2130      2.00000
    110     -19.2129      2.00000
    111     -19.2129      2.00000
    112     -19.2129      2.00000
    113     -19.2128      2.00000
    114     -19.2128      2.00000
    115     -19.2128      2.00000
    116     -19.2128      2.00000
    117     -19.2127      2.00000
    118     -19.2127      2.00000
    119     -19.2126      2.00000
    120     -19.2126      2.00000
    121     -19.2125      2.00000
    122     -19.2125      2.00000
    123     -19.2123      2.00000
    124     -19.2123      2.00000
    125     -19.2123      2.00000
    126     -19.2123      2.00000
    127     -19.2122      2.00000
    128     -19.2122      2.00000
    129     -19.2122      2.00000
    130     -19.2122      2.00000
    131     -19.2121      2.00000
    132     -19.2121      2.00000
    133     -19.2121      2.00000
    134     -19.2120      2.00000
    135     -19.2120      2.00000
    136     -19.2119      2.00000
    137     -19.2118      2.00000
    138     -19.2118      2.00000
    139     -19.2118      2.00000
    140     -19.2117      2.00000
    141     -19.2116      2.00000
    142     -19.2115      2.00000
    143     -19.2114      2.00000
    144     -19.2113      2.00000
    145     -19.2112      2.00000
    146     -19.2111      2.00000
    147     -19.2110      2.00000
    148     -19.2108      2.00000
    149     -19.2108      2.00000
    150     -19.2107      2.00000
    151     -19.2107      2.00000
    152     -19.2106      2.00000
    153     -19.2105      2.00000
    154     -19.2105      2.00000
    155     -19.2104      2.00000
    156     -19.2101      2.00000
    157     -19.2101      2.00000
    158     -19.2100      2.00000
    159     -19.2100      2.00000
    160     -19.2098      2.00000
    161     -19.2095      2.00000
    162     -19.2095      2.00000
    163     -19.2094      2.00000
    164     -19.2094      2.00000
    165     -19.2092      2.00000
    166     -19.2092      2.00000
    167     -19.2092      2.00000
    168     -19.2091      2.00000
    169     -19.2091      2.00000
    170     -19.2091      2.00000
    171     -19.2091      2.00000
    172     -19.2091      2.00000
    173     -19.2090      2.00000
    174     -19.2090      2.00000
    175     -19.2089      2.00000
    176     -19.2089      2.00000
    177     -19.2088      2.00000
    178     -19.2088      2.00000
    179     -19.2087      2.00000
    180     -19.2087      2.00000
    181     -19.2084      2.00000
    182     -19.2080      2.00000
    183     -19.2080      2.00000
    184     -19.2080      2.00000
    185     -19.2079      2.00000
    186     -19.2079      2.00000
    187     -19.2079      2.00000
    188     -19.2078      2.00000
    189     -19.2076      2.00000
    190     -19.2076      2.00000
    191     -19.2076      2.00000
    192     -19.2075      2.00000
    193     -19.1958      2.00000
    194     -19.1957      2.00000
    195     -19.1957      2.00000
    196     -19.1955      2.00000
    197     -19.1953      2.00000
    198     -19.1953      2.00000
    199     -19.1953      2.00000
    200     -19.1952      2.00000
    201     -19.1952      2.00000
    202     -19.1949      2.00000
    203     -19.1949      2.00000
    204     -19.1947      2.00000
    205     -19.1947      2.00000
    206     -19.1945      2.00000
    207     -19.1944      2.00000
    208     -19.1941      2.00000
    209     -19.1940      2.00000
    210     -19.1939      2.00000
    211     -19.1939      2.00000
    212     -19.1939      2.00000
    213     -19.1938      2.00000
    214     -19.1938      2.00000
    215     -19.1937      2.00000
    216     -19.1936      2.00000
    217     -19.1936      2.00000
    218     -19.1935      2.00000
    219     -19.1935      2.00000
    220     -19.1935      2.00000
    221     -19.1934      2.00000
    222     -19.1934      2.00000
    223     -19.1934      2.00000
    224     -19.1933      2.00000
    225     -19.1933      2.00000
    226     -19.1932      2.00000
    227     -19.1932      2.00000
    228     -19.1930      2.00000
    229     -19.1930      2.00000
    230     -19.1930      2.00000
    231     -19.1929      2.00000
    232     -19.1929      2.00000
    233     -19.1928      2.00000
    234     -19.1928      2.00000
    235     -19.1927      2.00000
    236     -19.1927      2.00000
    237     -19.1927      2.00000
    238     -19.1926      2.00000
    239     -19.1926      2.00000
    240     -19.1926      2.00000
    241     -19.1925      2.00000
    242     -19.1925      2.00000
    243     -19.1924      2.00000
    244     -19.1924      2.00000
    245     -19.1922      2.00000
    246     -19.1922      2.00000
    247     -19.1922      2.00000
    248     -19.1921      2.00000
    249     -19.1921      2.00000
    250     -19.1921      2.00000
    251     -19.1920      2.00000
    252     -19.1919      2.00000
    253     -19.1919      2.00000
    254     -19.1918      2.00000
    255     -19.1918      2.00000
    256     -19.1918      2.00000
    257     -19.1918      2.00000
    258     -19.1917      2.00000
    259     -19.1916      2.00000
    260     -19.1914      2.00000
    261     -19.1914      2.00000
    262     -19.1913      2.00000
    263     -19.1913      2.00000
    264     -19.1912      2.00000
    265     -19.1912      2.00000
    266     -19.1912      2.00000
    267     -19.1911      2.00000
    268     -19.1911      2.00000
    269     -19.1910      2.00000
    270     -19.1910      2.00000
    271     -19.1909      2.00000
    272     -19.1909      2.00000
    273     -19.1909      2.00000
    274     -19.1909      2.00000
    275     -19.1909      2.00000
    276     -19.1908      2.00000
    277     -19.1908      2.00000
    278     -19.1908      2.00000
    279     -19.1908      2.00000
    280     -19.1908      2.00000
    281     -19.1907      2.00000
    282     -19.1907      2.00000
    283     -19.1906      2.00000
    284     -19.1906      2.00000
    285     -19.1906      2.00000
    286     -19.1905      2.00000
    287     -19.1905      2.00000
    288     -19.1904      2.00000
    289     -19.1904      2.00000
    290     -19.1904      2.00000
    291     -19.1904      2.00000
    292     -19.1903      2.00000
    293     -19.1903      2.00000
    294     -19.1903      2.00000
    295     -19.1902      2.00000
    296     -19.1902      2.00000
    297     -19.1901      2.00000
    298     -19.1901      2.00000
    299     -19.1900      2.00000
    300     -19.1900      2.00000
    301     -19.1900      2.00000
    302     -19.1898      2.00000
    303     -19.1898      2.00000
    304     -19.1896      2.00000
    305     -19.1896      2.00000
    306     -19.1895      2.00000
    307     -19.1895      2.00000
    308     -19.1894      2.00000
    309     -19.1894      2.00000
    310     -19.1893      2.00000
    311     -19.1892      2.00000
    312     -19.1888      2.00000
    313     -19.1888      2.00000
    314     -19.1887      2.00000
    315     -19.1887      2.00000
    316     -19.1886      2.00000
    317     -19.1885      2.00000
    318     -19.1884      2.00000
    319     -19.1884      2.00000
    320     -19.1883      2.00000
    321      -6.8523      2.00000
    322      -6.7679      2.00000
    323      -6.7675      2.00000
    324      -6.5171      2.00000
    325      -6.5167      2.00000
    326      -6.1940      2.00000
    327      -6.1125      2.00000
    328      -6.1120      2.00000
    329      -6.1119      2.00000
    330      -6.1113      2.00000
    331      -5.8693      2.00000
    332      -5.8685      2.00000
    333      -5.5856      2.00000
    334      -5.5851      2.00000
    335      -5.5850      2.00000
    336      -5.5842      2.00000
    337      -5.5422      2.00000
    338      -5.5418      2.00000
    339      -5.4766      2.00000
    340      -5.4760      2.00000
    341      -5.4760      2.00000
    342      -5.4755      2.00000
    343      -5.3539      2.00000
    344      -5.3532      2.00000
    345      -5.2156      2.00000
    346      -5.2152      2.00000
    347      -5.0343      2.00000
    348      -5.0340      2.00000
    349      -5.0339      2.00000
    350      -5.0332      2.00000
    351      -4.9625      2.00000
    352      -4.9619      2.00000
    353      -4.8137      2.00000
    354      -4.8129      2.00000
    355      -4.7511      2.00000
    356      -4.7506      2.00000
    357      -4.7172      2.00000
    358      -4.7167      2.00000
    359      -4.6089      2.00000
    360      -4.6082      2.00000
    361      -4.6082      2.00000
    362      -4.6077      2.00000
    363      -4.4142      2.00000
    364      -4.4138      2.00000
    365      -4.4137      2.00000
    366      -4.4128      2.00000
    367      -4.3014      2.00000
    368      -4.3009      2.00000
    369      -4.1307      2.00000
    370      -4.1303      2.00000
    371      -4.1240      2.00000
    372      -4.1218      2.00000
    373      -4.1213      2.00000
    374      -4.1212      2.00000
    375      -4.1208      2.00000
    376      -4.1187      2.00000
    377      -4.1181      2.00000
    378      -3.7910      2.00000
    379      -3.7907      2.00000
    380      -3.7906      2.00000
    381      -3.7902      2.00000
    382      -3.7035      2.00000
    383      -3.7029      2.00000
    384      -3.5802      2.00000
    385      -2.6289      2.00000
    386      -2.4333      2.00000
    387      -2.4327      2.00000
    388      -2.3761      2.00000
    389      -2.3754      2.00000
    390      -2.3753      2.00000
    391      -2.3748      2.00000
    392      -2.0637      2.00000
    393      -2.0631      2.00000
    394      -2.0433      2.00000
    395      -2.0429      2.00000
    396      -2.0428      2.00000
    397      -2.0419      2.00000
    398      -2.0216      2.00000
    399      -1.9569      2.00000
    400      -1.9560      2.00000
    401      -1.9301      2.00000
    402      -1.9294      2.00000
    403      -1.8638      2.00000
    404      -1.8632      2.00000
    405      -1.8300      2.00000
    406      -1.8294      2.00000
    407      -1.7272      2.00000
    408      -1.7270      2.00000
    409      -1.7269      2.00000
    410      -1.7257      2.00000
    411      -1.7041      2.00000
    412      -1.7033      2.00000
    413      -1.7032      2.00000
    414      -1.7028      2.00000
    415      -1.4931      2.00000
    416      -1.4920      2.00000
    417      -1.4918      2.00000
    418      -1.4917      2.00000
    419      -1.2166      2.00000
    420      -1.2159      2.00000
    421      -1.1756      2.00000
    422      -1.1750      2.00000
    423      -0.9995      2.00000
    424      -0.9989      2.00000
    425      -0.8620      2.00000
    426      -0.8613      2.00000
    427      -0.5877      2.00000
    428      -0.5869      2.00000
    429      -0.4900      2.00000
    430      -0.4892      2.00000
    431      -0.4890      2.00000
    432      -0.4887      2.00000
    433      -0.3133      2.00000
    434      -0.3128      2.00000
    435      -0.3128      2.00000
    436      -0.3118      2.00000
    437       0.2645      2.00000
    438       0.2651      2.00000
    439       0.7354      2.00000
    440       0.7361      2.00000
    441       0.7363      2.00000
    442       0.7366      2.00000
    443       0.8141      2.00000
    444       0.9581      2.00000
    445       0.9583      2.00000
    446       0.9584      2.00000
    447       0.9587      2.00000
    448       0.9594      2.00000
    449       0.9758      2.00000
    450       0.9761      2.00000
    451       1.1453      2.00000
    452       1.1456      2.00000
    453       1.2444      2.00000
    454       1.2446      2.00000
    455       1.2450      2.00000
    456       1.2452      2.00000
    457       1.3429      2.00000
    458       1.4036      2.00000
    459       1.4039      2.00000
    460       1.4282      2.00000
    461       1.4284      2.00000
    462       1.4286      2.00000
    463       1.4289      2.00000
    464       1.4965      2.00000
    465       1.4968      2.00000
    466       1.4971      2.00000
    467       1.4973      2.00000
    468       1.5859      2.00000
    469       1.5862      2.00000
    470       1.9360      2.00000
    471       1.9365      2.00000
    472       1.9910      2.00000
    473       1.9912      2.00000
    474       2.0109      2.00000
    475       2.0111      2.00000
    476       2.0300      2.00000
    477       2.0303      2.00000
    478       2.1432      2.00000
    479       2.1436      2.00000
    480       2.1437      2.00000
    481       2.1439      2.00000
    482       2.1879      2.00000
    483       2.1884      2.00000
    484       2.2072      2.00000
    485       2.2078      2.00000
    486       2.2269      2.00000
    487       2.2272      2.00000
    488       2.2275      2.00000
    489       2.2276      2.00000
    490       2.2712      2.00000
    491       2.2715      2.00000
    492       2.3339      2.00000
    493       2.3345      2.00000
    494       2.3756      2.00000
    495       2.3759      2.00000
    496       2.3878      2.00000
    497       2.3884      2.00000
    498       2.4119      2.00000
    499       2.4346      2.00000
    500       2.4350      2.00000
    501       2.4353      2.00000
    502       2.4355      2.00000
    503       2.4957      2.00000
    504       2.4960      2.00000
    505       2.4962      2.00000
    506       2.4969      2.00000
    507       2.5162      2.00000
    508       2.5168      2.00000
    509       2.5928      2.00000
    510       2.5931      2.00000
    511       2.5934      2.00000
    512       2.5939      2.00000
    513       2.6746      2.00000
    514       2.6748      2.00000
    515       2.6751      2.00000
    516       2.6755      2.00000
    517       2.6848      2.00000
    518       2.6849      2.00000
    519       2.7078      2.00000
    520       2.8030      2.00000
    521       2.8036      2.00000
    522       2.8093      2.00000
    523       2.8101      2.00000
    524       2.9066      2.00000
    525       2.9067      2.00000
    526       2.9070      2.00000
    527       2.9079      2.00000
    528       2.9523      2.00000
    529       3.0162      2.00000
    530       3.0168      2.00000
    531       3.1080      2.00000
    532       3.1083      2.00000
    533       3.1084      2.00000
    534       3.1089      2.00000
    535       3.1567      2.00000
    536       3.1581      2.00000
    537       3.1583      2.00000
    538       3.1589      2.00000
    539       3.1591      2.00000
    540       3.1594      2.00000
    541       3.1600      2.00000
    542       3.3332      2.00000
    543       3.3341      2.00000
    544       3.3941      2.00000
    545       3.3945      2.00000
    546       3.4134      2.00000
    547       3.4138      2.00000
    548       3.4583      2.00000
    549       3.4590      2.00000
    550       3.4714      2.00000
    551       3.4716      2.00000
    552       3.4999      2.00000
    553       3.5000      2.00000
    554       3.5001      2.00000
    555       3.5014      2.00000
    556       3.6446      2.00000
    557       3.6455      2.00000
    558       3.7359      2.00000
    559       3.7362      2.00000
    560       3.7364      2.00000
    561       3.7372      2.00000
    562       4.0458      2.00000
    563       4.0467      2.00000
    564       4.0567      2.00000
    565       4.0572      2.00000
    566       4.0574      2.00000
    567       4.0578      2.00000
    568       4.2408      2.00000
    569       4.3028      2.00000
    570       4.3037      2.00000
    571       4.3333      2.00000
    572       4.3343      2.00000
    573       4.4240      2.00000
    574       4.4249      2.00000
    575       4.4897      2.00000
    576       4.9695      2.00000
    577       6.0210      0.00000
    578       6.0216      0.00000
    579       6.1067      0.00000
    580       6.3300      0.00000
    581       6.3304      0.00000
    582       6.4853      0.00000
    583       6.4857      0.00000
    584       6.6369      0.00000
    585       6.6372      0.00000
    586       6.6452      0.00000
    587       6.6456      0.00000
    588       6.6459      0.00000
    589       6.6462      0.00000
    590       6.6565      0.00000
    591       6.6568      0.00000
    592       6.6635      0.00000
    593       6.8695      0.00000
    594       6.8701      0.00000
    595       6.9484      0.00000
    596       6.9493      0.00000
    597       6.9978      0.00000
    598       6.9984      0.00000
    599       7.0434      0.00000
    600       7.0440      0.00000
    601       7.0605      0.00000
    602       7.0611      0.00000
    603       7.1795      0.00000
    604       7.1798      0.00000
    605       7.1800      0.00000
    606       7.1804      0.00000
    607       7.1830      0.00000
    608       7.1833      0.00000
    609       7.2073      0.00000
    610       7.2078      0.00000
    611       7.2078      0.00000
    612       7.2083      0.00000
    613       7.2314      0.00000
    614       7.2316      0.00000
    615       7.2319      0.00000
    616       7.2319      0.00000
    617       7.2322      0.00000
    618       7.2996      0.00000
    619       7.2999      0.00000
    620       7.3670      0.00000
    621       7.3672      0.00000
    622       7.3673      0.00000
    623       7.3679      0.00000
    624       7.3844      0.00000
    625       7.3849      0.00000
    626       7.5170      0.00000
    627       7.5170      0.00000
    628       7.5175      0.00000
    629       7.5179      0.00000
    630       7.5411      0.00000
    631       7.5477      0.00000
    632       7.5482      0.00000
    633       7.5483      0.00000
    634       7.5487      0.00000
    635       7.6240      0.00000
    636       7.6244      0.00000
    637       7.6830      0.00000
    638       7.7016      0.00000
    639       7.7019      0.00000
    640       7.7292      0.00000
    641       7.7295      0.00000
    642       7.7818      0.00000
    643       7.7824      0.00000
    644       7.7826      0.00000
    645       7.7831      0.00000
    646       7.8833      0.00000
    647       7.8985      0.00000
    648       7.8989      0.00000
    649       7.9487      0.00000
    650       7.9489      0.00000
    651       8.0215      0.00000
    652       8.1596      0.00000
    653       8.1604      0.00000
    654       8.1606      0.00000
    655       8.1607      0.00000
    656       8.2460      0.00000
    657       8.2464      0.00000
    658       8.2524      0.00000
    659       8.2526      0.00000
    660       8.2527      0.00000
    661       8.2538      0.00000
    662       8.3604      0.00000
    663       8.3606      0.00000
    664       8.4029      0.00000
    665       8.4036      0.00000
    666       8.4273      0.00000
    667       8.4275      0.00000
    668       8.4280      0.00000
    669       8.4283      0.00000
    670       8.4316      0.00000
    671       8.4320      0.00000
    672       8.4323      0.00000
    673       8.4334      0.00000
    674       8.4681      0.00000
    675       8.4685      0.00000
    676       8.6107      0.00000
    677       8.6112      0.00000
    678       8.6131      0.00000
    679       8.6171      0.00000
    680       8.6172      0.00000
    681       8.6175      0.00000
    682       8.6179      0.00000
    683       8.6186      0.00000
    684       8.6192      0.00000
    685       8.6734      0.00000
    686       8.6739      0.00000
    687       8.7512      0.00000
    688       8.7519      0.00000
    689       8.7782      0.00000
    690       8.7789      0.00000
    691       8.7995      0.00000
    692       8.7999      0.00000
    693       8.8004      0.00000
    694       8.8005      0.00000
    695       8.8135      0.00000
    696       8.8137      0.00000
    697       8.8140      0.00000
    698       8.8146      0.00000
    699       8.8278      0.00000
    700       8.8282      0.00000
    701       8.8733      0.00000
    702       8.9966      0.00000
    703       8.9978      0.00000
    704       9.1331      0.00000

 k-point     8 :       0.0000   -0.3333    0.3333
  band No.  band energies     occupation 
      1     -19.2229      2.00000
      2     -19.2229      2.00000
      3     -19.2228      2.00000
      4     -19.2228      2.00000
      5     -19.2224      2.00000
      6     -19.2221      2.00000
      7     -19.2221      2.00000
      8     -19.2219      2.00000
      9     -19.2219      2.00000
     10     -19.2216      2.00000
     11     -19.2216      2.00000
     12     -19.2205      2.00000
     13     -19.2204      2.00000
     14     -19.2203      2.00000
     15     -19.2203      2.00000
     16     -19.2202      2.00000
     17     -19.2201      2.00000
     18     -19.2201      2.00000
     19     -19.2200      2.00000
     20     -19.2200      2.00000
     21     -19.2198      2.00000
     22     -19.2197      2.00000
     23     -19.2197      2.00000
     24     -19.2192      2.00000
     25     -19.2191      2.00000
     26     -19.2191      2.00000
     27     -19.2190      2.00000
     28     -19.2190      2.00000
     29     -19.2189      2.00000
     30     -19.2189      2.00000
     31     -19.2189      2.00000
     32     -19.2188      2.00000
     33     -19.2188      2.00000
     34     -19.2188      2.00000
     35     -19.2187      2.00000
     36     -19.2187      2.00000
     37     -19.2187      2.00000
     38     -19.2187      2.00000
     39     -19.2186      2.00000
     40     -19.2186      2.00000
     41     -19.2186      2.00000
     42     -19.2184      2.00000
     43     -19.2184      2.00000
     44     -19.2184      2.00000
     45     -19.2183      2.00000
     46     -19.2182      2.00000
     47     -19.2182      2.00000
     48     -19.2181      2.00000
     49     -19.2181      2.00000
     50     -19.2180      2.00000
     51     -19.2180      2.00000
     52     -19.2180      2.00000
     53     -19.2180      2.00000
     54     -19.2180      2.00000
     55     -19.2180      2.00000
     56     -19.2179      2.00000
     57     -19.2179      2.00000
     58     -19.2179      2.00000
     59     -19.2178      2.00000
     60     -19.2178      2.00000
     61     -19.2178      2.00000
     62     -19.2178      2.00000
     63     -19.2177      2.00000
     64     -19.2175      2.00000
     65     -19.2170      2.00000
     66     -19.2166      2.00000
     67     -19.2164      2.00000
     68     -19.2164      2.00000
     69     -19.2162      2.00000
     70     -19.2162      2.00000
     71     -19.2154      2.00000
     72     -19.2153      2.00000
     73     -19.2151      2.00000
     74     -19.2151      2.00000
     75     -19.2150      2.00000
     76     -19.2145      2.00000
     77     -19.2144      2.00000
     78     -19.2144      2.00000
     79     -19.2143      2.00000
     80     -19.2143      2.00000
     81     -19.2140      2.00000
     82     -19.2140      2.00000
     83     -19.2139      2.00000
     84     -19.2139      2.00000
     85     -19.2138      2.00000
     86     -19.2138      2.00000
     87     -19.2138      2.00000
     88     -19.2137      2.00000
     89     -19.2136      2.00000
     90     -19.2136      2.00000
     91     -19.2136      2.00000
     92     -19.2136      2.00000
     93     -19.2135      2.00000
     94     -19.2135      2.00000
     95     -19.2133      2.00000
     96     -19.2133      2.00000
     97     -19.2132      2.00000
     98     -19.2132      2.00000
     99     -19.2132      2.00000
    100     -19.2132      2.00000
    101     -19.2131      2.00000
    102     -19.2131      2.00000
    103     -19.2131      2.00000
    104     -19.2131      2.00000
    105     -19.2131      2.00000
    106     -19.2131      2.00000
    107     -19.2130      2.00000
    108     -19.2130      2.00000
    109     -19.2129      2.00000
    110     -19.2129      2.00000
    111     -19.2129      2.00000
    112     -19.2129      2.00000
    113     -19.2129      2.00000
    114     -19.2129      2.00000
    115     -19.2128      2.00000
    116     -19.2128      2.00000
    117     -19.2128      2.00000
    118     -19.2128      2.00000
    119     -19.2126      2.00000
    120     -19.2126      2.00000
    121     -19.2125      2.00000
    122     -19.2124      2.00000
    123     -19.2124      2.00000
    124     -19.2124      2.00000
    125     -19.2123      2.00000
    126     -19.2123      2.00000
    127     -19.2122      2.00000
    128     -19.2122      2.00000
    129     -19.2121      2.00000
    130     -19.2121      2.00000
    131     -19.2121      2.00000
    132     -19.2121      2.00000
    133     -19.2120      2.00000
    134     -19.2120      2.00000
    135     -19.2120      2.00000
    136     -19.2119      2.00000
    137     -19.2118      2.00000
    138     -19.2118      2.00000
    139     -19.2118      2.00000
    140     -19.2117      2.00000
    141     -19.2116      2.00000
    142     -19.2115      2.00000
    143     -19.2113      2.00000
    144     -19.2113      2.00000
    145     -19.2112      2.00000
    146     -19.2112      2.00000
    147     -19.2112      2.00000
    148     -19.2108      2.00000
    149     -19.2108      2.00000
    150     -19.2108      2.00000
    151     -19.2108      2.00000
    152     -19.2107      2.00000
    153     -19.2106      2.00000
    154     -19.2104      2.00000
    155     -19.2103      2.00000
    156     -19.2101      2.00000
    157     -19.2101      2.00000
    158     -19.2100      2.00000
    159     -19.2100      2.00000
    160     -19.2098      2.00000
    161     -19.2095      2.00000
    162     -19.2095      2.00000
    163     -19.2094      2.00000
    164     -19.2094      2.00000
    165     -19.2092      2.00000
    166     -19.2092      2.00000
    167     -19.2092      2.00000
    168     -19.2092      2.00000
    169     -19.2091      2.00000
    170     -19.2091      2.00000
    171     -19.2091      2.00000
    172     -19.2090      2.00000
    173     -19.2090      2.00000
    174     -19.2090      2.00000
    175     -19.2089      2.00000
    176     -19.2089      2.00000
    177     -19.2088      2.00000
    178     -19.2088      2.00000
    179     -19.2087      2.00000
    180     -19.2087      2.00000
    181     -19.2084      2.00000
    182     -19.2080      2.00000
    183     -19.2080      2.00000
    184     -19.2080      2.00000
    185     -19.2080      2.00000
    186     -19.2079      2.00000
    187     -19.2078      2.00000
    188     -19.2078      2.00000
    189     -19.2076      2.00000
    190     -19.2076      2.00000
    191     -19.2076      2.00000
    192     -19.2076      2.00000
    193     -19.1957      2.00000
    194     -19.1957      2.00000
    195     -19.1956      2.00000
    196     -19.1955      2.00000
    197     -19.1955      2.00000
    198     -19.1955      2.00000
    199     -19.1953      2.00000
    200     -19.1953      2.00000
    201     -19.1952      2.00000
    202     -19.1948      2.00000
    203     -19.1948      2.00000
    204     -19.1945      2.00000
    205     -19.1945      2.00000
    206     -19.1945      2.00000
    207     -19.1944      2.00000
    208     -19.1942      2.00000
    209     -19.1941      2.00000
    210     -19.1941      2.00000
    211     -19.1939      2.00000
    212     -19.1939      2.00000
    213     -19.1939      2.00000
    214     -19.1938      2.00000
    215     -19.1937      2.00000
    216     -19.1936      2.00000
    217     -19.1936      2.00000
    218     -19.1935      2.00000
    219     -19.1935      2.00000
    220     -19.1935      2.00000
    221     -19.1934      2.00000
    222     -19.1934      2.00000
    223     -19.1933      2.00000
    224     -19.1933      2.00000
    225     -19.1932      2.00000
    226     -19.1931      2.00000
    227     -19.1931      2.00000
    228     -19.1931      2.00000
    229     -19.1931      2.00000
    230     -19.1930      2.00000
    231     -19.1930      2.00000
    232     -19.1929      2.00000
    233     -19.1929      2.00000
    234     -19.1928      2.00000
    235     -19.1928      2.00000
    236     -19.1927      2.00000
    237     -19.1927      2.00000
    238     -19.1926      2.00000
    239     -19.1925      2.00000
    240     -19.1925      2.00000
    241     -19.1925      2.00000
    242     -19.1924      2.00000
    243     -19.1924      2.00000
    244     -19.1924      2.00000
    245     -19.1923      2.00000
    246     -19.1921      2.00000
    247     -19.1921      2.00000
    248     -19.1921      2.00000
    249     -19.1921      2.00000
    250     -19.1920      2.00000
    251     -19.1920      2.00000
    252     -19.1920      2.00000
    253     -19.1920      2.00000
    254     -19.1920      2.00000
    255     -19.1919      2.00000
    256     -19.1918      2.00000
    257     -19.1917      2.00000
    258     -19.1917      2.00000
    259     -19.1916      2.00000
    260     -19.1915      2.00000
    261     -19.1914      2.00000
    262     -19.1914      2.00000
    263     -19.1913      2.00000
    264     -19.1913      2.00000
    265     -19.1912      2.00000
    266     -19.1911      2.00000
    267     -19.1911      2.00000
    268     -19.1910      2.00000
    269     -19.1910      2.00000
    270     -19.1910      2.00000
    271     -19.1910      2.00000
    272     -19.1909      2.00000
    273     -19.1909      2.00000
    274     -19.1909      2.00000
    275     -19.1908      2.00000
    276     -19.1908      2.00000
    277     -19.1908      2.00000
    278     -19.1908      2.00000
    279     -19.1908      2.00000
    280     -19.1907      2.00000
    281     -19.1907      2.00000
    282     -19.1907      2.00000
    283     -19.1906      2.00000
    284     -19.1906      2.00000
    285     -19.1906      2.00000
    286     -19.1906      2.00000
    287     -19.1905      2.00000
    288     -19.1905      2.00000
    289     -19.1905      2.00000
    290     -19.1904      2.00000
    291     -19.1903      2.00000
    292     -19.1903      2.00000
    293     -19.1903      2.00000
    294     -19.1903      2.00000
    295     -19.1902      2.00000
    296     -19.1901      2.00000
    297     -19.1901      2.00000
    298     -19.1900      2.00000
    299     -19.1900      2.00000
    300     -19.1899      2.00000
    301     -19.1899      2.00000
    302     -19.1899      2.00000
    303     -19.1897      2.00000
    304     -19.1897      2.00000
    305     -19.1896      2.00000
    306     -19.1895      2.00000
    307     -19.1895      2.00000
    308     -19.1895      2.00000
    309     -19.1894      2.00000
    310     -19.1892      2.00000
    311     -19.1892      2.00000
    312     -19.1888      2.00000
    313     -19.1888      2.00000
    314     -19.1887      2.00000
    315     -19.1886      2.00000
    316     -19.1886      2.00000
    317     -19.1885      2.00000
    318     -19.1885      2.00000
    319     -19.1884      2.00000
    320     -19.1884      2.00000
    321      -6.8523      2.00000
    322      -6.7677      2.00000
    323      -6.7677      2.00000
    324      -6.5173      2.00000
    325      -6.5166      2.00000
    326      -6.1940      2.00000
    327      -6.1127      2.00000
    328      -6.1120      2.00000
    329      -6.1119      2.00000
    330      -6.1112      2.00000
    331      -5.8689      2.00000
    332      -5.8689      2.00000
    333      -5.5856      2.00000
    334      -5.5851      2.00000
    335      -5.5850      2.00000
    336      -5.5845      2.00000
    337      -5.5420      2.00000
    338      -5.5419      2.00000
    339      -5.4768      2.00000
    340      -5.4761      2.00000
    341      -5.4759      2.00000
    342      -5.4752      2.00000
    343      -5.3535      2.00000
    344      -5.3535      2.00000
    345      -5.2158      2.00000
    346      -5.2150      2.00000
    347      -5.0347      2.00000
    348      -5.0340      2.00000
    349      -5.0339      2.00000
    350      -5.0333      2.00000
    351      -4.9627      2.00000
    352      -4.9619      2.00000
    353      -4.8133      2.00000
    354      -4.8133      2.00000
    355      -4.7512      2.00000
    356      -4.7507      2.00000
    357      -4.7168      2.00000
    358      -4.7168      2.00000
    359      -4.6089      2.00000
    360      -4.6082      2.00000
    361      -4.6082      2.00000
    362      -4.6075      2.00000
    363      -4.4140      2.00000
    364      -4.4138      2.00000
    365      -4.4135      2.00000
    366      -4.4133      2.00000
    367      -4.3016      2.00000
    368      -4.3008      2.00000
    369      -4.1308      2.00000
    370      -4.1301      2.00000
    371      -4.1238      2.00000
    372      -4.1217      2.00000
    373      -4.1212      2.00000
    374      -4.1211      2.00000
    375      -4.1206      2.00000
    376      -4.1188      2.00000
    377      -4.1182      2.00000
    378      -3.7913      2.00000
    379      -3.7907      2.00000
    380      -3.7906      2.00000
    381      -3.7900      2.00000
    382      -3.7035      2.00000
    383      -3.7032      2.00000
    384      -3.5801      2.00000
    385      -2.6291      2.00000
    386      -2.4333      2.00000
    387      -2.4322      2.00000
    388      -2.3761      2.00000
    389      -2.3754      2.00000
    390      -2.3753      2.00000
    391      -2.3745      2.00000
    392      -2.0637      2.00000
    393      -2.0627      2.00000
    394      -2.0433      2.00000
    395      -2.0429      2.00000
    396      -2.0429      2.00000
    397      -2.0424      2.00000
    398      -2.0220      2.00000
    399      -1.9568      2.00000
    400      -1.9566      2.00000
    401      -1.9301      2.00000
    402      -1.9289      2.00000
    403      -1.8638      2.00000
    404      -1.8638      2.00000
    405      -1.8301      2.00000
    406      -1.8291      2.00000
    407      -1.7272      2.00000
    408      -1.7269      2.00000
    409      -1.7269      2.00000
    410      -1.7267      2.00000
    411      -1.7043      2.00000
    412      -1.7034      2.00000
    413      -1.7032      2.00000
    414      -1.7022      2.00000
    415      -1.4930      2.00000
    416      -1.4919      2.00000
    417      -1.4918      2.00000
    418      -1.4906      2.00000
    419      -1.2164      2.00000
    420      -1.2164      2.00000
    421      -1.1753      2.00000
    422      -1.1753      2.00000
    423      -0.9995      2.00000
    424      -0.9983      2.00000
    425      -0.8619      2.00000
    426      -0.8619      2.00000
    427      -0.5876      2.00000
    428      -0.5873      2.00000
    429      -0.4900      2.00000
    430      -0.4891      2.00000
    431      -0.4890      2.00000
    432      -0.4881      2.00000
    433      -0.3133      2.00000
    434      -0.3128      2.00000
    435      -0.3128      2.00000
    436      -0.3123      2.00000
    437       0.2647      2.00000
    438       0.2647      2.00000
    439       0.7354      2.00000
    440       0.7361      2.00000
    441       0.7364      2.00000
    442       0.7370      2.00000
    443       0.8140      2.00000
    444       0.9579      2.00000
    445       0.9583      2.00000
    446       0.9586      2.00000
    447       0.9587      2.00000
    448       0.9591      2.00000
    449       0.9759      2.00000
    450       0.9763      2.00000
    451       1.1452      2.00000
    452       1.1453      2.00000
    453       1.2445      2.00000
    454       1.2446      2.00000
    455       1.2450      2.00000
    456       1.2451      2.00000
    457       1.3427      2.00000
    458       1.4034      2.00000
    459       1.4040      2.00000
    460       1.4281      2.00000
    461       1.4284      2.00000
    462       1.4286      2.00000
    463       1.4289      2.00000
    464       1.4968      2.00000
    465       1.4971      2.00000
    466       1.4972      2.00000
    467       1.4975      2.00000
    468       1.5859      2.00000
    469       1.5862      2.00000
    470       1.9362      2.00000
    471       1.9369      2.00000
    472       1.9910      2.00000
    473       1.9912      2.00000
    474       2.0110      2.00000
    475       2.0113      2.00000
    476       2.0300      2.00000
    477       2.0301      2.00000
    478       2.1431      2.00000
    479       2.1435      2.00000
    480       2.1437      2.00000
    481       2.1441      2.00000
    482       2.1878      2.00000
    483       2.1883      2.00000
    484       2.2073      2.00000
    485       2.2073      2.00000
    486       2.2273      2.00000
    487       2.2275      2.00000
    488       2.2275      2.00000
    489       2.2277      2.00000
    490       2.2711      2.00000
    491       2.2717      2.00000
    492       2.3337      2.00000
    493       2.3342      2.00000
    494       2.3756      2.00000
    495       2.3762      2.00000
    496       2.3877      2.00000
    497       2.3878      2.00000
    498       2.4121      2.00000
    499       2.4346      2.00000
    500       2.4348      2.00000
    501       2.4355      2.00000
    502       2.4356      2.00000
    503       2.4956      2.00000
    504       2.4960      2.00000
    505       2.4962      2.00000
    506       2.4966      2.00000
    507       2.5167      2.00000
    508       2.5167      2.00000
    509       2.5928      2.00000
    510       2.5930      2.00000
    511       2.5935      2.00000
    512       2.5937      2.00000
    513       2.6745      2.00000
    514       2.6749      2.00000
    515       2.6752      2.00000
    516       2.6755      2.00000
    517       2.6850      2.00000
    518       2.6851      2.00000
    519       2.7079      2.00000
    520       2.8032      2.00000
    521       2.8032      2.00000
    522       2.8092      2.00000
    523       2.8097      2.00000
    524       2.9067      2.00000
    525       2.9069      2.00000
    526       2.9070      2.00000
    527       2.9071      2.00000
    528       2.9526      2.00000
    529       3.0163      2.00000
    530       3.0163      2.00000
    531       3.1078      2.00000
    532       3.1082      2.00000
    533       3.1083      2.00000
    534       3.1087      2.00000
    535       3.1565      2.00000
    536       3.1581      2.00000
    537       3.1581      2.00000
    538       3.1587      2.00000
    539       3.1591      2.00000
    540       3.1594      2.00000
    541       3.1597      2.00000
    542       3.3339      2.00000
    543       3.3339      2.00000
    544       3.3941      2.00000
    545       3.3942      2.00000
    546       3.4134      2.00000
    547       3.4141      2.00000
    548       3.4589      2.00000
    549       3.4590      2.00000
    550       3.4714      2.00000
    551       3.4715      2.00000
    552       3.4997      2.00000
    553       3.5000      2.00000
    554       3.5001      2.00000
    555       3.5005      2.00000
    556       3.6453      2.00000
    557       3.6453      2.00000
    558       3.7359      2.00000
    559       3.7363      2.00000
    560       3.7364      2.00000
    561       3.7369      2.00000
    562       4.0465      2.00000
    563       4.0466      2.00000
    564       4.0564      2.00000
    565       4.0571      2.00000
    566       4.0575      2.00000
    567       4.0583      2.00000
    568       4.2409      2.00000
    569       4.3036      2.00000
    570       4.3036      2.00000
    571       4.3334      2.00000
    572       4.3335      2.00000
    573       4.4242      2.00000
    574       4.4242      2.00000
    575       4.4901      2.00000
    576       4.9700      2.00000
    577       6.0215      0.00000
    578       6.0215      0.00000
    579       6.1070      0.00000
    580       6.3299      0.00000
    581       6.3306      0.00000
    582       6.4854      0.00000
    583       6.4855      0.00000
    584       6.6371      0.00000
    585       6.6371      0.00000
    586       6.6452      0.00000
    587       6.6455      0.00000
    588       6.6459      0.00000
    589       6.6462      0.00000
    590       6.6568      0.00000
    591       6.6568      0.00000
    592       6.6638      0.00000
    593       6.8693      0.00000
    594       6.8697      0.00000
    595       6.9488      0.00000
    596       6.9489      0.00000
    597       6.9983      0.00000
    598       6.9983      0.00000
    599       7.0439      0.00000
    600       7.0439      0.00000
    601       7.0607      0.00000
    602       7.0607      0.00000
    603       7.1795      0.00000
    604       7.1798      0.00000
    605       7.1801      0.00000
    606       7.1805      0.00000
    607       7.1828      0.00000
    608       7.1831      0.00000
    609       7.2073      0.00000
    610       7.2077      0.00000
    611       7.2079      0.00000
    612       7.2083      0.00000
    613       7.2312      0.00000
    614       7.2315      0.00000
    615       7.2318      0.00000
    616       7.2320      0.00000
    617       7.2322      0.00000
    618       7.2998      0.00000
    619       7.2998      0.00000
    620       7.3669      0.00000
    621       7.3670      0.00000
    622       7.3674      0.00000
    623       7.3675      0.00000
    624       7.3844      0.00000
    625       7.3851      0.00000
    626       7.5168      0.00000
    627       7.5170      0.00000
    628       7.5172      0.00000
    629       7.5174      0.00000
    630       7.5412      0.00000
    631       7.5478      0.00000
    632       7.5481      0.00000
    633       7.5485      0.00000
    634       7.5488      0.00000
    635       7.6240      0.00000
    636       7.6244      0.00000
    637       7.6827      0.00000
    638       7.7018      0.00000
    639       7.7018      0.00000
    640       7.7293      0.00000
    641       7.7293      0.00000
    642       7.7820      0.00000
    643       7.7822      0.00000
    644       7.7827      0.00000
    645       7.7830      0.00000
    646       7.8829      0.00000
    647       7.8983      0.00000
    648       7.8992      0.00000
    649       7.9486      0.00000
    650       7.9489      0.00000
    651       8.0218      0.00000
    652       8.1600      0.00000
    653       8.1605      0.00000
    654       8.1607      0.00000
    655       8.1612      0.00000
    656       8.2459      0.00000
    657       8.2465      0.00000
    658       8.2523      0.00000
    659       8.2526      0.00000
    660       8.2528      0.00000
    661       8.2531      0.00000
    662       8.3602      0.00000
    663       8.3603      0.00000
    664       8.4030      0.00000
    665       8.4040      0.00000
    666       8.4271      0.00000
    667       8.4275      0.00000
    668       8.4276      0.00000
    669       8.4280      0.00000
    670       8.4317      0.00000
    671       8.4318      0.00000
    672       8.4323      0.00000
    673       8.4325      0.00000
    674       8.4687      0.00000
    675       8.4687      0.00000
    676       8.6108      0.00000
    677       8.6110      0.00000
    678       8.6129      0.00000
    679       8.6170      0.00000
    680       8.6172      0.00000
    681       8.6173      0.00000
    682       8.6176      0.00000
    683       8.6188      0.00000
    684       8.6196      0.00000
    685       8.6736      0.00000
    686       8.6738      0.00000
    687       8.7514      0.00000
    688       8.7514      0.00000
    689       8.7782      0.00000
    690       8.7782      0.00000
    691       8.7996      0.00000
    692       8.7999      0.00000
    693       8.8001      0.00000
    694       8.8005      0.00000
    695       8.8132      0.00000
    696       8.8136      0.00000
    697       8.8140      0.00000
    698       8.8144      0.00000
    699       8.8284      0.00000
    700       8.8285      0.00000
    701       8.8735      0.00000
    702       8.9967      0.00000
    703       9.0034      0.00000
    704       9.1250      0.00000

 k-point     9 :       0.3333    0.3333   -0.3333
  band No.  band energies     occupation 
      1     -19.2229      2.00000
      2     -19.2229      2.00000
      3     -19.2229      2.00000
      4     -19.2228      2.00000
      5     -19.2224      2.00000
      6     -19.2221      2.00000
      7     -19.2220      2.00000
      8     -19.2219      2.00000
      9     -19.2219      2.00000
     10     -19.2216      2.00000
     11     -19.2216      2.00000
     12     -19.2205      2.00000
     13     -19.2205      2.00000
     14     -19.2204      2.00000
     15     -19.2203      2.00000
     16     -19.2202      2.00000
     17     -19.2201      2.00000
     18     -19.2201      2.00000
     19     -19.2200      2.00000
     20     -19.2199      2.00000
     21     -19.2199      2.00000
     22     -19.2197      2.00000
     23     -19.2197      2.00000
     24     -19.2192      2.00000
     25     -19.2191      2.00000
     26     -19.2191      2.00000
     27     -19.2191      2.00000
     28     -19.2190      2.00000
     29     -19.2189      2.00000
     30     -19.2189      2.00000
     31     -19.2189      2.00000
     32     -19.2188      2.00000
     33     -19.2188      2.00000
     34     -19.2188      2.00000
     35     -19.2188      2.00000
     36     -19.2187      2.00000
     37     -19.2187      2.00000
     38     -19.2187      2.00000
     39     -19.2186      2.00000
     40     -19.2186      2.00000
     41     -19.2185      2.00000
     42     -19.2184      2.00000
     43     -19.2184      2.00000
     44     -19.2184      2.00000
     45     -19.2183      2.00000
     46     -19.2183      2.00000
     47     -19.2182      2.00000
     48     -19.2182      2.00000
     49     -19.2181      2.00000
     50     -19.2181      2.00000
     51     -19.2181      2.00000
     52     -19.2181      2.00000
     53     -19.2180      2.00000
     54     -19.2180      2.00000
     55     -19.2180      2.00000
     56     -19.2179      2.00000
     57     -19.2179      2.00000
     58     -19.2179      2.00000
     59     -19.2178      2.00000
     60     -19.2178      2.00000
     61     -19.2177      2.00000
     62     -19.2177      2.00000
     63     -19.2176      2.00000
     64     -19.2176      2.00000
     65     -19.2171      2.00000
     66     -19.2166      2.00000
     67     -19.2164      2.00000
     68     -19.2164      2.00000
     69     -19.2162      2.00000
     70     -19.2162      2.00000
     71     -19.2154      2.00000
     72     -19.2154      2.00000
     73     -19.2151      2.00000
     74     -19.2151      2.00000
     75     -19.2150      2.00000
     76     -19.2145      2.00000
     77     -19.2145      2.00000
     78     -19.2144      2.00000
     79     -19.2143      2.00000
     80     -19.2143      2.00000
     81     -19.2140      2.00000
     82     -19.2140      2.00000
     83     -19.2139      2.00000
     84     -19.2139      2.00000
     85     -19.2138      2.00000
     86     -19.2138      2.00000
     87     -19.2138      2.00000
     88     -19.2137      2.00000
     89     -19.2137      2.00000
     90     -19.2137      2.00000
     91     -19.2136      2.00000
     92     -19.2135      2.00000
     93     -19.2135      2.00000
     94     -19.2134      2.00000
     95     -19.2134      2.00000
     96     -19.2133      2.00000
     97     -19.2133      2.00000
     98     -19.2132      2.00000
     99     -19.2132      2.00000
    100     -19.2132      2.00000
    101     -19.2132      2.00000
    102     -19.2131      2.00000
    103     -19.2131      2.00000
    104     -19.2131      2.00000
    105     -19.2131      2.00000
    106     -19.2130      2.00000
    107     -19.2130      2.00000
    108     -19.2130      2.00000
    109     -19.2129      2.00000
    110     -19.2129      2.00000
    111     -19.2129      2.00000
    112     -19.2129      2.00000
    113     -19.2128      2.00000
    114     -19.2128      2.00000
    115     -19.2128      2.00000
    116     -19.2128      2.00000
    117     -19.2127      2.00000
    118     -19.2127      2.00000
    119     -19.2126      2.00000
    120     -19.2125      2.00000
    121     -19.2125      2.00000
    122     -19.2124      2.00000
    123     -19.2123      2.00000
    124     -19.2123      2.00000
    125     -19.2123      2.00000
    126     -19.2122      2.00000
    127     -19.2122      2.00000
    128     -19.2122      2.00000
    129     -19.2122      2.00000
    130     -19.2122      2.00000
    131     -19.2121      2.00000
    132     -19.2121      2.00000
    133     -19.2121      2.00000
    134     -19.2120      2.00000
    135     -19.2120      2.00000
    136     -19.2120      2.00000
    137     -19.2118      2.00000
    138     -19.2118      2.00000
    139     -19.2118      2.00000
    140     -19.2117      2.00000
    141     -19.2116      2.00000
    142     -19.2115      2.00000
    143     -19.2114      2.00000
    144     -19.2113      2.00000
    145     -19.2113      2.00000
    146     -19.2112      2.00000
    147     -19.2110      2.00000
    148     -19.2109      2.00000
    149     -19.2108      2.00000
    150     -19.2107      2.00000
    151     -19.2107      2.00000
    152     -19.2107      2.00000
    153     -19.2105      2.00000
    154     -19.2104      2.00000
    155     -19.2102      2.00000
    156     -19.2101      2.00000
    157     -19.2101      2.00000
    158     -19.2100      2.00000
    159     -19.2100      2.00000
    160     -19.2098      2.00000
    161     -19.2095      2.00000
    162     -19.2095      2.00000
    163     -19.2094      2.00000
    164     -19.2094      2.00000
    165     -19.2092      2.00000
    166     -19.2092      2.00000
    167     -19.2092      2.00000
    168     -19.2091      2.00000
    169     -19.2091      2.00000
    170     -19.2091      2.00000
    171     -19.2091      2.00000
    172     -19.2091      2.00000
    173     -19.2090      2.00000
    174     -19.2090      2.00000
    175     -19.2089      2.00000
    176     -19.2088      2.00000
    177     -19.2088      2.00000
    178     -19.2088      2.00000
    179     -19.2088      2.00000
    180     -19.2088      2.00000
    181     -19.2084      2.00000
    182     -19.2080      2.00000
    183     -19.2080      2.00000
    184     -19.2079      2.00000
    185     -19.2079      2.00000
    186     -19.2079      2.00000
    187     -19.2079      2.00000
    188     -19.2078      2.00000
    189     -19.2076      2.00000
    190     -19.2076      2.00000
    191     -19.2076      2.00000
    192     -19.2075      2.00000
    193     -19.1958      2.00000
    194     -19.1957      2.00000
    195     -19.1957      2.00000
    196     -19.1956      2.00000
    197     -19.1954      2.00000
    198     -19.1954      2.00000
    199     -19.1953      2.00000
    200     -19.1953      2.00000
    201     -19.1952      2.00000
    202     -19.1948      2.00000
    203     -19.1948      2.00000
    204     -19.1946      2.00000
    205     -19.1946      2.00000
    206     -19.1945      2.00000
    207     -19.1944      2.00000
    208     -19.1942      2.00000
    209     -19.1942      2.00000
    210     -19.1940      2.00000
    211     -19.1940      2.00000
    212     -19.1938      2.00000
    213     -19.1938      2.00000
    214     -19.1938      2.00000
    215     -19.1937      2.00000
    216     -19.1936      2.00000
    217     -19.1936      2.00000
    218     -19.1935      2.00000
    219     -19.1935      2.00000
    220     -19.1934      2.00000
    221     -19.1934      2.00000
    222     -19.1934      2.00000
    223     -19.1934      2.00000
    224     -19.1933      2.00000
    225     -19.1932      2.00000
    226     -19.1932      2.00000
    227     -19.1932      2.00000
    228     -19.1931      2.00000
    229     -19.1931      2.00000
    230     -19.1930      2.00000
    231     -19.1930      2.00000
    232     -19.1929      2.00000
    233     -19.1929      2.00000
    234     -19.1928      2.00000
    235     -19.1927      2.00000
    236     -19.1927      2.00000
    237     -19.1926      2.00000
    238     -19.1926      2.00000
    239     -19.1925      2.00000
    240     -19.1925      2.00000
    241     -19.1925      2.00000
    242     -19.1924      2.00000
    243     -19.1924      2.00000
    244     -19.1924      2.00000
    245     -19.1923      2.00000
    246     -19.1922      2.00000
    247     -19.1922      2.00000
    248     -19.1922      2.00000
    249     -19.1921      2.00000
    250     -19.1921      2.00000
    251     -19.1920      2.00000
    252     -19.1919      2.00000
    253     -19.1919      2.00000
    254     -19.1919      2.00000
    255     -19.1918      2.00000
    256     -19.1918      2.00000
    257     -19.1918      2.00000
    258     -19.1917      2.00000
    259     -19.1916      2.00000
    260     -19.1914      2.00000
    261     -19.1914      2.00000
    262     -19.1913      2.00000
    263     -19.1913      2.00000
    264     -19.1912      2.00000
    265     -19.1912      2.00000
    266     -19.1912      2.00000
    267     -19.1911      2.00000
    268     -19.1910      2.00000
    269     -19.1910      2.00000
    270     -19.1910      2.00000
    271     -19.1910      2.00000
    272     -19.1909      2.00000
    273     -19.1909      2.00000
    274     -19.1909      2.00000
    275     -19.1909      2.00000
    276     -19.1908      2.00000
    277     -19.1908      2.00000
    278     -19.1908      2.00000
    279     -19.1908      2.00000
    280     -19.1907      2.00000
    281     -19.1907      2.00000
    282     -19.1907      2.00000
    283     -19.1907      2.00000
    284     -19.1907      2.00000
    285     -19.1906      2.00000
    286     -19.1906      2.00000
    287     -19.1905      2.00000
    288     -19.1904      2.00000
    289     -19.1904      2.00000
    290     -19.1904      2.00000
    291     -19.1903      2.00000
    292     -19.1903      2.00000
    293     -19.1903      2.00000
    294     -19.1902      2.00000
    295     -19.1902      2.00000
    296     -19.1902      2.00000
    297     -19.1901      2.00000
    298     -19.1900      2.00000
    299     -19.1900      2.00000
    300     -19.1900      2.00000
    301     -19.1899      2.00000
    302     -19.1899      2.00000
    303     -19.1899      2.00000
    304     -19.1898      2.00000
    305     -19.1897      2.00000
    306     -19.1895      2.00000
    307     -19.1894      2.00000
    308     -19.1893      2.00000
    309     -19.1893      2.00000
    310     -19.1892      2.00000
    311     -19.1891      2.00000
    312     -19.1889      2.00000
    313     -19.1889      2.00000
    314     -19.1888      2.00000
    315     -19.1887      2.00000
    316     -19.1887      2.00000
    317     -19.1886      2.00000
    318     -19.1884      2.00000
    319     -19.1883      2.00000
    320     -19.1883      2.00000
    321      -6.8523      2.00000
    322      -6.7679      2.00000
    323      -6.7675      2.00000
    324      -6.5172      2.00000
    325      -6.5168      2.00000
    326      -6.1940      2.00000
    327      -6.1126      2.00000
    328      -6.1120      2.00000
    329      -6.1119      2.00000
    330      -6.1114      2.00000
    331      -5.8692      2.00000
    332      -5.8685      2.00000
    333      -5.5858      2.00000
    334      -5.5850      2.00000
    335      -5.5849      2.00000
    336      -5.5844      2.00000
    337      -5.5421      2.00000
    338      -5.5417      2.00000
    339      -5.4765      2.00000
    340      -5.4760      2.00000
    341      -5.4760      2.00000
    342      -5.4754      2.00000
    343      -5.3537      2.00000
    344      -5.3531      2.00000
    345      -5.2155      2.00000
    346      -5.2152      2.00000
    347      -5.0347      2.00000
    348      -5.0340      2.00000
    349      -5.0339      2.00000
    350      -5.0336      2.00000
    351      -4.9626      2.00000
    352      -4.9621      2.00000
    353      -4.8137      2.00000
    354      -4.8129      2.00000
    355      -4.7513      2.00000
    356      -4.7508      2.00000
    357      -4.7169      2.00000
    358      -4.7164      2.00000
    359      -4.6087      2.00000
    360      -4.6082      2.00000
    361      -4.6082      2.00000
    362      -4.6075      2.00000
    363      -4.4145      2.00000
    364      -4.4136      2.00000
    365      -4.4136      2.00000
    366      -4.4131      2.00000
    367      -4.3015      2.00000
    368      -4.3010      2.00000
    369      -4.1305      2.00000
    370      -4.1301      2.00000
    371      -4.1236      2.00000
    372      -4.1217      2.00000
    373      -4.1211      2.00000
    374      -4.1211      2.00000
    375      -4.1205      2.00000
    376      -4.1187      2.00000
    377      -4.1184      2.00000
    378      -3.7911      2.00000
    379      -3.7907      2.00000
    380      -3.7906      2.00000
    381      -3.7903      2.00000
    382      -3.7039      2.00000
    383      -3.7033      2.00000
    384      -3.5799      2.00000
    385      -2.6293      2.00000
    386      -2.4327      2.00000
    387      -2.4322      2.00000
    388      -2.3759      2.00000
    389      -2.3754      2.00000
    390      -2.3753      2.00000
    391      -2.3746      2.00000
    392      -2.0633      2.00000
    393      -2.0627      2.00000
    394      -2.0439      2.00000
    395      -2.0429      2.00000
    396      -2.0428      2.00000
    397      -2.0425      2.00000
    398      -2.0223      2.00000
    399      -1.9574      2.00000
    400      -1.9565      2.00000
    401      -1.9295      2.00000
    402      -1.9289      2.00000
    403      -1.8645      2.00000
    404      -1.8638      2.00000
    405      -1.8298      2.00000
    406      -1.8292      2.00000
    407      -1.7281      2.00000
    408      -1.7269      2.00000
    409      -1.7268      2.00000
    410      -1.7267      2.00000
    411      -1.7037      2.00000
    412      -1.7033      2.00000
    413      -1.7032      2.00000
    414      -1.7024      2.00000
    415      -1.4920      2.00000
    416      -1.4918      2.00000
    417      -1.4917      2.00000
    418      -1.4906      2.00000
    419      -1.2170      2.00000
    420      -1.2163      2.00000
    421      -1.1756      2.00000
    422      -1.1750      2.00000
    423      -0.9989      2.00000
    424      -0.9983      2.00000
    425      -0.8625      2.00000
    426      -0.8618      2.00000
    427      -0.5881      2.00000
    428      -0.5873      2.00000
    429      -0.4894      2.00000
    430      -0.4892      2.00000
    431      -0.4889      2.00000
    432      -0.4882      2.00000
    433      -0.3138      2.00000
    434      -0.3128      2.00000
    435      -0.3128      2.00000
    436      -0.3123      2.00000
    437       0.2643      2.00000
    438       0.2650      2.00000
    439       0.7359      2.00000
    440       0.7362      2.00000
    441       0.7364      2.00000
    442       0.7371      2.00000
    443       0.8140      2.00000
    444       0.9578      2.00000
    445       0.9583      2.00000
    446       0.9586      2.00000
    447       0.9588      2.00000
    448       0.9590      2.00000
    449       0.9761      2.00000
    450       0.9764      2.00000
    451       1.1449      2.00000
    452       1.1452      2.00000
    453       1.2444      2.00000
    454       1.2446      2.00000
    455       1.2450      2.00000
    456       1.2452      2.00000
    457       1.3425      2.00000
    458       1.4035      2.00000
    459       1.4039      2.00000
    460       1.4281      2.00000
    461       1.4283      2.00000
    462       1.4285      2.00000
    463       1.4287      2.00000
    464       1.4970      2.00000
    465       1.4972      2.00000
    466       1.4975      2.00000
    467       1.4978      2.00000
    468       1.5858      2.00000
    469       1.5862      2.00000
    470       1.9367      2.00000
    471       1.9372      2.00000
    472       1.9910      2.00000
    473       1.9912      2.00000
    474       2.0113      2.00000
    475       2.0114      2.00000
    476       2.0298      2.00000
    477       2.0301      2.00000
    478       2.1434      2.00000
    479       2.1436      2.00000
    480       2.1436      2.00000
    481       2.1440      2.00000
    482       2.1876      2.00000
    483       2.1882      2.00000
    484       2.2068      2.00000
    485       2.2074      2.00000
    486       2.2274      2.00000
    487       2.2275      2.00000
    488       2.2278      2.00000
    489       2.2281      2.00000
    490       2.2713      2.00000
    491       2.2716      2.00000
    492       2.3334      2.00000
    493       2.3341      2.00000
    494       2.3758      2.00000
    495       2.3762      2.00000
    496       2.3872      2.00000
    497       2.3878      2.00000
    498       2.4123      2.00000
    499       2.4347      2.00000
    500       2.4350      2.00000
    501       2.4353      2.00000
    502       2.4357      2.00000
    503       2.4953      2.00000
    504       2.4961      2.00000
    505       2.4962      2.00000
    506       2.4965      2.00000
    507       2.5166      2.00000
    508       2.5172      2.00000
    509       2.5926      2.00000
    510       2.5932      2.00000
    511       2.5934      2.00000
    512       2.5937      2.00000
    513       2.6745      2.00000
    514       2.6750      2.00000
    515       2.6752      2.00000
    516       2.6754      2.00000
    517       2.6852      2.00000
    518       2.6853      2.00000
    519       2.7080      2.00000
    520       2.8028      2.00000
    521       2.8034      2.00000
    522       2.8088      2.00000
    523       2.8095      2.00000
    524       2.9059      2.00000
    525       2.9068      2.00000
    526       2.9071      2.00000
    527       2.9072      2.00000
    528       2.9528      2.00000
    529       3.0158      2.00000
    530       3.0165      2.00000
    531       3.1077      2.00000
    532       3.1081      2.00000
    533       3.1083      2.00000
    534       3.1086      2.00000
    535       3.1559      2.00000
    536       3.1578      2.00000
    537       3.1582      2.00000
    538       3.1589      2.00000
    539       3.1590      2.00000
    540       3.1593      2.00000
    541       3.1595      2.00000
    542       3.3337      2.00000
    543       3.3346      2.00000
    544       3.3938      2.00000
    545       3.3942      2.00000
    546       3.4138      2.00000
    547       3.4142      2.00000
    548       3.4589      2.00000
    549       3.4596      2.00000
    550       3.4713      2.00000
    551       3.4715      2.00000
    552       3.4988      2.00000
    553       3.5001      2.00000
    554       3.5002      2.00000
    555       3.5003      2.00000
    556       3.6452      2.00000
    557       3.6460      2.00000
    558       3.7355      2.00000
    559       3.7364      2.00000
    560       3.7365      2.00000
    561       3.7369      2.00000
    562       4.0465      2.00000
    563       4.0473      2.00000
    564       4.0568      2.00000
    565       4.0572      2.00000
    566       4.0574      2.00000
    567       4.0581      2.00000
    568       4.2409      2.00000
    569       4.3034      2.00000
    570       4.3044      2.00000
    571       4.3326      2.00000
    572       4.3335      2.00000
    573       4.4235      2.00000
    574       4.4244      2.00000
    575       4.4905      2.00000
    576       4.9704      2.00000
    577       6.0213      0.00000
    578       6.0219      0.00000
    579       6.1073      0.00000
    580       6.3301      0.00000
    581       6.3305      0.00000
    582       6.4851      0.00000
    583       6.4856      0.00000
    584       6.6371      0.00000
    585       6.6374      0.00000
    586       6.6452      0.00000
    587       6.6455      0.00000
    588       6.6458      0.00000
    589       6.6463      0.00000
    590       6.6567      0.00000
    591       6.6570      0.00000
    592       6.6641      0.00000
    593       6.8689      0.00000
    594       6.8696      0.00000
    595       6.9484      0.00000
    596       6.9493      0.00000
    597       6.9982      0.00000
    598       6.9988      0.00000
    599       7.0438      0.00000
    600       7.0444      0.00000
    601       7.0602      0.00000
    602       7.0609      0.00000
    603       7.1795      0.00000
    604       7.1800      0.00000
    605       7.1802      0.00000
    606       7.1804      0.00000
    607       7.1827      0.00000
    608       7.1829      0.00000
    609       7.2073      0.00000
    610       7.2077      0.00000
    611       7.2078      0.00000
    612       7.2083      0.00000
    613       7.2313      0.00000
    614       7.2315      0.00000
    615       7.2317      0.00000
    616       7.2319      0.00000
    617       7.2321      0.00000
    618       7.2998      0.00000
    619       7.3001      0.00000
    620       7.3666      0.00000
    621       7.3672      0.00000
    622       7.3673      0.00000
    623       7.3675      0.00000
    624       7.3846      0.00000
    625       7.3851      0.00000
    626       7.5163      0.00000
    627       7.5167      0.00000
    628       7.5172      0.00000
    629       7.5173      0.00000
    630       7.5414      0.00000
    631       7.5479      0.00000
    632       7.5483      0.00000
    633       7.5484      0.00000
    634       7.5489      0.00000
    635       7.6240      0.00000
    636       7.6244      0.00000
    637       7.6825      0.00000
    638       7.7017      0.00000
    639       7.7021      0.00000
    640       7.7291      0.00000
    641       7.7294      0.00000
    642       7.7819      0.00000
    643       7.7823      0.00000
    644       7.7826      0.00000
    645       7.7832      0.00000
    646       7.8826      0.00000
    647       7.8987      0.00000
    648       7.8991      0.00000
    649       7.9486      0.00000
    650       7.9488      0.00000
    651       8.0220      0.00000
    652       8.1605      0.00000
    653       8.1606      0.00000
    654       8.1608      0.00000
    655       8.1615      0.00000
    656       8.2460      0.00000
    657       8.2464      0.00000
    658       8.2517      0.00000
    659       8.2527      0.00000
    660       8.2528      0.00000
    661       8.2530      0.00000
    662       8.3599      0.00000
    663       8.3601      0.00000
    664       8.4034      0.00000
    665       8.4041      0.00000
    666       8.4264      0.00000
    667       8.4270      0.00000
    668       8.4276      0.00000
    669       8.4278      0.00000
    670       8.4313      0.00000
    671       8.4319      0.00000
    672       8.4321      0.00000
    673       8.4326      0.00000
    674       8.4689      0.00000
    675       8.4693      0.00000
    676       8.6107      0.00000
    677       8.6112      0.00000
    678       8.6124      0.00000
    679       8.6167      0.00000
    680       8.6172      0.00000
    681       8.6174      0.00000
    682       8.6175      0.00000
    683       8.6191      0.00000
    684       8.6197      0.00000
    685       8.6735      0.00000
    686       8.6741      0.00000
    687       8.7508      0.00000
    688       8.7515      0.00000
    689       8.7776      0.00000
    690       8.7783      0.00000
    691       8.7995      0.00000
    692       8.7997      0.00000
    693       8.8001      0.00000
    694       8.8005      0.00000
    695       8.8131      0.00000
    696       8.8136      0.00000
    697       8.8139      0.00000
    698       8.8142      0.00000
    699       8.8285      0.00000
    700       8.8290      0.00000
    701       8.8737      0.00000
    702       8.9968      0.00000
    703       8.9973      0.00000
    704       9.1381      0.00000

 k-point    10 :       0.3333   -0.3333   -0.3333
  band No.  band energies     occupation 
      1     -19.2230      2.00000
      2     -19.2229      2.00000
      3     -19.2229      2.00000
      4     -19.2228      2.00000
      5     -19.2223      2.00000
      6     -19.2219      2.00000
      7     -19.2219      2.00000
      8     -19.2218      2.00000
      9     -19.2218      2.00000
     10     -19.2218      2.00000
     11     -19.2218      2.00000
     12     -19.2206      2.00000
     13     -19.2206      2.00000
     14     -19.2204      2.00000
     15     -19.2203      2.00000
     16     -19.2201      2.00000
     17     -19.2201      2.00000
     18     -19.2200      2.00000
     19     -19.2200      2.00000
     20     -19.2199      2.00000
     21     -19.2198      2.00000
     22     -19.2197      2.00000
     23     -19.2196      2.00000
     24     -19.2191      2.00000
     25     -19.2191      2.00000
     26     -19.2191      2.00000
     27     -19.2190      2.00000
     28     -19.2190      2.00000
     29     -19.2190      2.00000
     30     -19.2189      2.00000
     31     -19.2189      2.00000
     32     -19.2189      2.00000
     33     -19.2188      2.00000
     34     -19.2188      2.00000
     35     -19.2187      2.00000
     36     -19.2187      2.00000
     37     -19.2187      2.00000
     38     -19.2186      2.00000
     39     -19.2186      2.00000
     40     -19.2186      2.00000
     41     -19.2185      2.00000
     42     -19.2185      2.00000
     43     -19.2184      2.00000
     44     -19.2184      2.00000
     45     -19.2184      2.00000
     46     -19.2183      2.00000
     47     -19.2183      2.00000
     48     -19.2182      2.00000
     49     -19.2181      2.00000
     50     -19.2181      2.00000
     51     -19.2181      2.00000
     52     -19.2180      2.00000
     53     -19.2180      2.00000
     54     -19.2180      2.00000
     55     -19.2179      2.00000
     56     -19.2179      2.00000
     57     -19.2179      2.00000
     58     -19.2179      2.00000
     59     -19.2178      2.00000
     60     -19.2178      2.00000
     61     -19.2177      2.00000
     62     -19.2177      2.00000
     63     -19.2176      2.00000
     64     -19.2176      2.00000
     65     -19.2172      2.00000
     66     -19.2166      2.00000
     67     -19.2163      2.00000
     68     -19.2163      2.00000
     69     -19.2163      2.00000
     70     -19.2162      2.00000
     71     -19.2154      2.00000
     72     -19.2154      2.00000
     73     -19.2152      2.00000
     74     -19.2151      2.00000
     75     -19.2151      2.00000
     76     -19.2144      2.00000
     77     -19.2144      2.00000
     78     -19.2144      2.00000
     79     -19.2143      2.00000
     80     -19.2143      2.00000
     81     -19.2141      2.00000
     82     -19.2140      2.00000
     83     -19.2139      2.00000
     84     -19.2139      2.00000
     85     -19.2139      2.00000
     86     -19.2138      2.00000
     87     -19.2138      2.00000
     88     -19.2137      2.00000
     89     -19.2136      2.00000
     90     -19.2136      2.00000
     91     -19.2135      2.00000
     92     -19.2135      2.00000
     93     -19.2135      2.00000
     94     -19.2134      2.00000
     95     -19.2134      2.00000
     96     -19.2133      2.00000
     97     -19.2133      2.00000
     98     -19.2133      2.00000
     99     -19.2132      2.00000
    100     -19.2132      2.00000
    101     -19.2131      2.00000
    102     -19.2131      2.00000
    103     -19.2131      2.00000
    104     -19.2131      2.00000
    105     -19.2131      2.00000
    106     -19.2130      2.00000
    107     -19.2130      2.00000
    108     -19.2130      2.00000
    109     -19.2130      2.00000
    110     -19.2130      2.00000
    111     -19.2129      2.00000
    112     -19.2129      2.00000
    113     -19.2129      2.00000
    114     -19.2128      2.00000
    115     -19.2128      2.00000
    116     -19.2128      2.00000
    117     -19.2127      2.00000
    118     -19.2127      2.00000
    119     -19.2126      2.00000
    120     -19.2126      2.00000
    121     -19.2125      2.00000
    122     -19.2125      2.00000
    123     -19.2124      2.00000
    124     -19.2123      2.00000
    125     -19.2123      2.00000
    126     -19.2123      2.00000
    127     -19.2122      2.00000
    128     -19.2122      2.00000
    129     -19.2122      2.00000
    130     -19.2121      2.00000
    131     -19.2121      2.00000
    132     -19.2121      2.00000
    133     -19.2121      2.00000
    134     -19.2120      2.00000
    135     -19.2120      2.00000
    136     -19.2120      2.00000
    137     -19.2119      2.00000
    138     -19.2118      2.00000
    139     -19.2118      2.00000
    140     -19.2117      2.00000
    141     -19.2115      2.00000
    142     -19.2115      2.00000
    143     -19.2114      2.00000
    144     -19.2114      2.00000
    145     -19.2113      2.00000
    146     -19.2110      2.00000
    147     -19.2109      2.00000
    148     -19.2108      2.00000
    149     -19.2108      2.00000
    150     -19.2106      2.00000
    151     -19.2106      2.00000
    152     -19.2105      2.00000
    153     -19.2105      2.00000
    154     -19.2105      2.00000
    155     -19.2105      2.00000
    156     -19.2101      2.00000
    157     -19.2101      2.00000
    158     -19.2100      2.00000
    159     -19.2100      2.00000
    160     -19.2098      2.00000
    161     -19.2095      2.00000
    162     -19.2095      2.00000
    163     -19.2095      2.00000
    164     -19.2095      2.00000
    165     -19.2092      2.00000
    166     -19.2092      2.00000
    167     -19.2092      2.00000
    168     -19.2091      2.00000
    169     -19.2091      2.00000
    170     -19.2091      2.00000
    171     -19.2091      2.00000
    172     -19.2091      2.00000
    173     -19.2090      2.00000
    174     -19.2090      2.00000
    175     -19.2089      2.00000
    176     -19.2089      2.00000
    177     -19.2089      2.00000
    178     -19.2088      2.00000
    179     -19.2088      2.00000
    180     -19.2088      2.00000
    181     -19.2084      2.00000
    182     -19.2080      2.00000
    183     -19.2080      2.00000
    184     -19.2080      2.00000
    185     -19.2079      2.00000
    186     -19.2079      2.00000
    187     -19.2079      2.00000
    188     -19.2078      2.00000
    189     -19.2076      2.00000
    190     -19.2076      2.00000
    191     -19.2075      2.00000
    192     -19.2075      2.00000
    193     -19.1958      2.00000
    194     -19.1958      2.00000
    195     -19.1957      2.00000
    196     -19.1955      2.00000
    197     -19.1954      2.00000
    198     -19.1952      2.00000
    199     -19.1952      2.00000
    200     -19.1952      2.00000
    201     -19.1951      2.00000
    202     -19.1949      2.00000
    203     -19.1949      2.00000
    204     -19.1947      2.00000
    205     -19.1947      2.00000
    206     -19.1945      2.00000
    207     -19.1945      2.00000
    208     -19.1940      2.00000
    209     -19.1940      2.00000
    210     -19.1940      2.00000
    211     -19.1939      2.00000
    212     -19.1938      2.00000
    213     -19.1938      2.00000
    214     -19.1938      2.00000
    215     -19.1937      2.00000
    216     -19.1936      2.00000
    217     -19.1936      2.00000
    218     -19.1935      2.00000
    219     -19.1935      2.00000
    220     -19.1935      2.00000
    221     -19.1934      2.00000
    222     -19.1934      2.00000
    223     -19.1934      2.00000
    224     -19.1934      2.00000
    225     -19.1934      2.00000
    226     -19.1932      2.00000
    227     -19.1931      2.00000
    228     -19.1930      2.00000
    229     -19.1930      2.00000
    230     -19.1930      2.00000
    231     -19.1929      2.00000
    232     -19.1929      2.00000
    233     -19.1928      2.00000
    234     -19.1928      2.00000
    235     -19.1927      2.00000
    236     -19.1927      2.00000
    237     -19.1927      2.00000
    238     -19.1926      2.00000
    239     -19.1926      2.00000
    240     -19.1926      2.00000
    241     -19.1925      2.00000
    242     -19.1925      2.00000
    243     -19.1924      2.00000
    244     -19.1924      2.00000
    245     -19.1923      2.00000
    246     -19.1922      2.00000
    247     -19.1922      2.00000
    248     -19.1922      2.00000
    249     -19.1921      2.00000
    250     -19.1921      2.00000
    251     -19.1920      2.00000
    252     -19.1920      2.00000
    253     -19.1919      2.00000
    254     -19.1918      2.00000
    255     -19.1918      2.00000
    256     -19.1917      2.00000
    257     -19.1916      2.00000
    258     -19.1916      2.00000
    259     -19.1915      2.00000
    260     -19.1915      2.00000
    261     -19.1913      2.00000
    262     -19.1913      2.00000
    263     -19.1912      2.00000
    264     -19.1911      2.00000
    265     -19.1911      2.00000
    266     -19.1911      2.00000
    267     -19.1911      2.00000
    268     -19.1911      2.00000
    269     -19.1911      2.00000
    270     -19.1910      2.00000
    271     -19.1910      2.00000
    272     -19.1909      2.00000
    273     -19.1909      2.00000
    274     -19.1909      2.00000
    275     -19.1909      2.00000
    276     -19.1908      2.00000
    277     -19.1908      2.00000
    278     -19.1908      2.00000
    279     -19.1908      2.00000
    280     -19.1908      2.00000
    281     -19.1907      2.00000
    282     -19.1907      2.00000
    283     -19.1907      2.00000
    284     -19.1907      2.00000
    285     -19.1906      2.00000
    286     -19.1906      2.00000
    287     -19.1905      2.00000
    288     -19.1904      2.00000
    289     -19.1904      2.00000
    290     -19.1904      2.00000
    291     -19.1903      2.00000
    292     -19.1903      2.00000
    293     -19.1903      2.00000
    294     -19.1903      2.00000
    295     -19.1903      2.00000
    296     -19.1902      2.00000
    297     -19.1901      2.00000
    298     -19.1901      2.00000
    299     -19.1900      2.00000
    300     -19.1900      2.00000
    301     -19.1900      2.00000
    302     -19.1899      2.00000
    303     -19.1899      2.00000
    304     -19.1898      2.00000
    305     -19.1897      2.00000
    306     -19.1894      2.00000
    307     -19.1894      2.00000
    308     -19.1893      2.00000
    309     -19.1892      2.00000
    310     -19.1891      2.00000
    311     -19.1891      2.00000
    312     -19.1889      2.00000
    313     -19.1889      2.00000
    314     -19.1889      2.00000
    315     -19.1888      2.00000
    316     -19.1887      2.00000
    317     -19.1886      2.00000
    318     -19.1884      2.00000
    319     -19.1883      2.00000
    320     -19.1882      2.00000
    321      -6.8523      2.00000
    322      -6.7677      2.00000
    323      -6.7677      2.00000
    324      -6.5170      2.00000
    325      -6.5170      2.00000
    326      -6.1940      2.00000
    327      -6.1120      2.00000
    328      -6.1119      2.00000
    329      -6.1119      2.00000
    330      -6.1119      2.00000
    331      -5.8689      2.00000
    332      -5.8688      2.00000
    333      -5.5851      2.00000
    334      -5.5850      2.00000
    335      -5.5850      2.00000
    336      -5.5850      2.00000
    337      -5.5421      2.00000
    338      -5.5418      2.00000
    339      -5.4761      2.00000
    340      -5.4760      2.00000
    341      -5.4760      2.00000
    342      -5.4759      2.00000
    343      -5.3536      2.00000
    344      -5.3533      2.00000
    345      -5.2154      2.00000
    346      -5.2154      2.00000
    347      -5.0340      2.00000
    348      -5.0340      2.00000
    349      -5.0339      2.00000
    350      -5.0339      2.00000
    351      -4.9623      2.00000
    352      -4.9623      2.00000
    353      -4.8134      2.00000
    354      -4.8133      2.00000
    355      -4.7510      2.00000
    356      -4.7510      2.00000
    357      -4.7170      2.00000
    358      -4.7166      2.00000
    359      -4.6086      2.00000
    360      -4.6082      2.00000
    361      -4.6082      2.00000
    362      -4.6078      2.00000
    363      -4.4139      2.00000
    364      -4.4137      2.00000
    365      -4.4137      2.00000
    366      -4.4135      2.00000
    367      -4.3012      2.00000
    368      -4.3012      2.00000
    369      -4.1304      2.00000
    370      -4.1304      2.00000
    371      -4.1239      2.00000
    372      -4.1216      2.00000
    373      -4.1212      2.00000
    374      -4.1212      2.00000
    375      -4.1207      2.00000
    376      -4.1185      2.00000
    377      -4.1184      2.00000
    378      -3.7907      2.00000
    379      -3.7907      2.00000
    380      -3.7906      2.00000
    381      -3.7906      2.00000
    382      -3.7034      2.00000
    383      -3.7034      2.00000
    384      -3.5801      2.00000
    385      -2.6291      2.00000
    386      -2.4327      2.00000
    387      -2.4327      2.00000
    388      -2.3754      2.00000
    389      -2.3754      2.00000
    390      -2.3753      2.00000
    391      -2.3753      2.00000
    392      -2.0632      2.00000
    393      -2.0632      2.00000
    394      -2.0438      2.00000
    395      -2.0429      2.00000
    396      -2.0428      2.00000
    397      -2.0419      2.00000
    398      -2.0220      2.00000
    399      -1.9567      2.00000
    400      -1.9567      2.00000
    401      -1.9295      2.00000
    402      -1.9295      2.00000
    403      -1.8643      2.00000
    404      -1.8633      2.00000
    405      -1.8296      2.00000
    406      -1.8296      2.00000
    407      -1.7280      2.00000
    408      -1.7269      2.00000
    409      -1.7269      2.00000
    410      -1.7258      2.00000
    411      -1.7037      2.00000
    412      -1.7033      2.00000
    413      -1.7032      2.00000
    414      -1.7028      2.00000
    415      -1.4919      2.00000
    416      -1.4919      2.00000
    417      -1.4918      2.00000
    418      -1.4918      2.00000
    419      -1.2169      2.00000
    420      -1.2159      2.00000
    421      -1.1755      2.00000
    422      -1.1751      2.00000
    423      -0.9989      2.00000
    424      -0.9989      2.00000
    425      -0.8623      2.00000
    426      -0.8615      2.00000
    427      -0.5875      2.00000
    428      -0.5875      2.00000
    429      -0.4893      2.00000
    430      -0.4891      2.00000
    431      -0.4891      2.00000
    432      -0.4889      2.00000
    433      -0.3135      2.00000
    434      -0.3128      2.00000
    435      -0.3128      2.00000
    436      -0.3121      2.00000
    437       0.2643      2.00000
    438       0.2652      2.00000
    439       0.7358      2.00000
    440       0.7362      2.00000
    441       0.7363      2.00000
    442       0.7367      2.00000
    443       0.8141      2.00000
    444       0.9583      2.00000
    445       0.9583      2.00000
    446       0.9586      2.00000
    447       0.9587      2.00000
    448       0.9588      2.00000
    449       0.9761      2.00000
    450       0.9761      2.00000
    451       1.1452      2.00000
    452       1.1452      2.00000
    453       1.2446      2.00000
    454       1.2447      2.00000
    455       1.2449      2.00000
    456       1.2450      2.00000
    457       1.3427      2.00000
    458       1.4037      2.00000
    459       1.4037      2.00000
    460       1.4282      2.00000
    461       1.4284      2.00000
    462       1.4286      2.00000
    463       1.4288      2.00000
    464       1.4968      2.00000
    465       1.4968      2.00000
    466       1.4974      2.00000
    467       1.4975      2.00000
    468       1.5860      2.00000
    469       1.5860      2.00000
    470       1.9366      2.00000
    471       1.9366      2.00000
    472       1.9911      2.00000
    473       1.9911      2.00000
    474       2.0112      2.00000
    475       2.0112      2.00000
    476       2.0297      2.00000
    477       2.0304      2.00000
    478       2.1433      2.00000
    479       2.1436      2.00000
    480       2.1437      2.00000
    481       2.1439      2.00000
    482       2.1880      2.00000
    483       2.1880      2.00000
    484       2.2071      2.00000
    485       2.2075      2.00000
    486       2.2272      2.00000
    487       2.2272      2.00000
    488       2.2278      2.00000
    489       2.2278      2.00000
    490       2.2714      2.00000
    491       2.2714      2.00000
    492       2.3340      2.00000
    493       2.3340      2.00000
    494       2.3759      2.00000
    495       2.3759      2.00000
    496       2.3878      2.00000
    497       2.3878      2.00000
    498       2.4121      2.00000
    499       2.4347      2.00000
    500       2.4350      2.00000
    501       2.4353      2.00000
    502       2.4355      2.00000
    503       2.4956      2.00000
    504       2.4960      2.00000
    505       2.4962      2.00000
    506       2.4966      2.00000
    507       2.5167      2.00000
    508       2.5167      2.00000
    509       2.5929      2.00000
    510       2.5931      2.00000
    511       2.5934      2.00000
    512       2.5936      2.00000
    513       2.6747      2.00000
    514       2.6750      2.00000
    515       2.6750      2.00000
    516       2.6754      2.00000
    517       2.6850      2.00000
    518       2.6850      2.00000
    519       2.7079      2.00000
    520       2.8027      2.00000
    521       2.8037      2.00000
    522       2.8094      2.00000
    523       2.8095      2.00000
    524       2.9068      2.00000
    525       2.9069      2.00000
    526       2.9070      2.00000
    527       2.9070      2.00000
    528       2.9526      2.00000
    529       3.0158      2.00000
    530       3.0168      2.00000
    531       3.1078      2.00000
    532       3.1081      2.00000
    533       3.1084      2.00000
    534       3.1088      2.00000
    535       3.1561      2.00000
    536       3.1578      2.00000
    537       3.1583      2.00000
    538       3.1589      2.00000
    539       3.1590      2.00000
    540       3.1593      2.00000
    541       3.1600      2.00000
    542       3.3338      2.00000
    543       3.3340      2.00000
    544       3.3937      2.00000
    545       3.3946      2.00000
    546       3.4138      2.00000
    547       3.4138      2.00000
    548       3.4589      2.00000
    549       3.4591      2.00000
    550       3.4714      2.00000
    551       3.4715      2.00000
    552       3.4997      2.00000
    553       3.5000      2.00000
    554       3.5002      2.00000
    555       3.5006      2.00000
    556       3.6452      2.00000
    557       3.6455      2.00000
    558       3.7356      2.00000
    559       3.7362      2.00000
    560       3.7365      2.00000
    561       3.7371      2.00000
    562       4.0465      2.00000
    563       4.0467      2.00000
    564       4.0567      2.00000
    565       4.0572      2.00000
    566       4.0574      2.00000
    567       4.0579      2.00000
    568       4.2409      2.00000
    569       4.3035      2.00000
    570       4.3036      2.00000
    571       4.3334      2.00000
    572       4.3335      2.00000
    573       4.4236      2.00000
    574       4.4248      2.00000
    575       4.4901      2.00000
    576       4.9699      2.00000
    577       6.0214      0.00000
    578       6.0215      0.00000
    579       6.1070      0.00000
    580       6.3302      0.00000
    581       6.3302      0.00000
    582       6.4854      0.00000
    583       6.4854      0.00000
    584       6.6369      0.00000
    585       6.6374      0.00000
    586       6.6454      0.00000
    587       6.6454      0.00000
    588       6.6460      0.00000
    589       6.6460      0.00000
    590       6.6565      0.00000
    591       6.6570      0.00000
    592       6.6638      0.00000
    593       6.8695      0.00000
    594       6.8695      0.00000
    595       6.9489      0.00000
    596       6.9489      0.00000
    597       6.9982      0.00000
    598       6.9984      0.00000
    599       7.0438      0.00000
    600       7.0440      0.00000
    601       7.0607      0.00000
    602       7.0607      0.00000
    603       7.1795      0.00000
    604       7.1798      0.00000
    605       7.1802      0.00000
    606       7.1803      0.00000
    607       7.1829      0.00000
    608       7.1830      0.00000
    609       7.2074      0.00000
    610       7.2076      0.00000
    611       7.2080      0.00000
    612       7.2082      0.00000
    613       7.2313      0.00000
    614       7.2315      0.00000
    615       7.2318      0.00000
    616       7.2319      0.00000
    617       7.2323      0.00000
    618       7.2996      0.00000
    619       7.3001      0.00000
    620       7.3668      0.00000
    621       7.3672      0.00000
    622       7.3673      0.00000
    623       7.3676      0.00000
    624       7.3848      0.00000
    625       7.3848      0.00000
    626       7.5170      0.00000
    627       7.5171      0.00000
    628       7.5172      0.00000
    629       7.5172      0.00000
    630       7.5412      0.00000
    631       7.5480      0.00000
    632       7.5482      0.00000
    633       7.5485      0.00000
    634       7.5486      0.00000
    635       7.6242      0.00000
    636       7.6242      0.00000
    637       7.6827      0.00000
    638       7.7016      0.00000
    639       7.7021      0.00000
    640       7.7293      0.00000
    641       7.7293      0.00000
    642       7.7822      0.00000
    643       7.7823      0.00000
    644       7.7827      0.00000
    645       7.7827      0.00000
    646       7.8829      0.00000
    647       7.8988      0.00000
    648       7.8988      0.00000
    649       7.9488      0.00000
    650       7.9488      0.00000
    651       8.0218      0.00000
    652       8.1602      0.00000
    653       8.1604      0.00000
    654       8.1608      0.00000
    655       8.1610      0.00000
    656       8.2461      0.00000
    657       8.2462      0.00000
    658       8.2524      0.00000
    659       8.2527      0.00000
    660       8.2527      0.00000
    661       8.2531      0.00000
    662       8.3603      0.00000
    663       8.3603      0.00000
    664       8.4034      0.00000
    665       8.4035      0.00000
    666       8.4271      0.00000
    667       8.4273      0.00000
    668       8.4278      0.00000
    669       8.4279      0.00000
    670       8.4313      0.00000
    671       8.4319      0.00000
    672       8.4322      0.00000
    673       8.4331      0.00000
    674       8.4685      0.00000
    675       8.4689      0.00000
    676       8.6107      0.00000
    677       8.6113      0.00000
    678       8.6128      0.00000
    679       8.6169      0.00000
    680       8.6173      0.00000
    681       8.6173      0.00000
    682       8.6176      0.00000
    683       8.6191      0.00000
    684       8.6192      0.00000
    685       8.6737      0.00000
    686       8.6737      0.00000
    687       8.7512      0.00000
    688       8.7515      0.00000
    689       8.7778      0.00000
    690       8.7787      0.00000
    691       8.7995      0.00000
    692       8.7996      0.00000
    693       8.8004      0.00000
    694       8.8005      0.00000
    695       8.8133      0.00000
    696       8.8137      0.00000
    697       8.8139      0.00000
    698       8.8143      0.00000
    699       8.8283      0.00000
    700       8.8285      0.00000
    701       8.8735      0.00000
    702       8.9968      0.00000
    703       8.9999      0.00000
    704       9.1548      0.00000


--------------------------------------------------------------------------------------------------------


 soft charge-density along one line, spin component           1
         0         1         2         3         4         5         6         7         8         9
 total charge-density along one line
 
 pseudopotential strength for first ion, spin component:           1
 18.542  25.870   0.000   0.000  -0.000   0.000   0.000  -0.000
 25.870  36.099   0.000   0.000  -0.000   0.000   0.000  -0.000
  0.000   0.000   4.193   0.000  -0.000   7.815   0.000  -0.000
  0.000   0.000   0.000   4.193  -0.000   0.000   7.815  -0.000
 -0.000  -0.000  -0.000  -0.000   4.193  -0.000  -0.000   7.815
  0.000   0.000   7.815   0.000  -0.000  14.575   0.000  -0.000
  0.000   0.000   0.000   7.815  -0.000   0.000  14.575  -0.000
 -0.000  -0.000  -0.000  -0.000   7.815  -0.000  -0.000  14.575
 total augmentation occupancy for first ion, spin component:           1
  4.963  -1.777   0.000   0.000  -0.000  -0.000  -0.000   0.000
 -1.777   0.788  -0.000  -0.000   0.000   0.000   0.000  -0.000
  0.000  -0.000   2.606  -0.000   0.000  -0.562  -0.000   0.000
  0.000  -0.000  -0.000   2.606   0.000  -0.000  -0.562   0.000
 -0.000   0.000   0.000   0.000   2.606   0.000   0.000  -0.562
 -0.000   0.000  -0.562  -0.000   0.000   0.131   0.000  -0.000
 -0.000   0.000  -0.000  -0.562   0.000   0.000   0.131  -0.000
  0.000  -0.000   0.000   0.000  -0.562  -0.000  -0.000   0.131


------------------------ aborting loop because EDIFF is reached ----------------------------------------


    CHARGE:  cpu time      1.7611: real time      1.7699
    FORLOC:  cpu time      0.0350: real time      0.0352
    FORNL :  cpu time     25.8971: real time     25.9905
    STRESS:  cpu time     42.3374: real time     42.4955
    FORCOR:  cpu time      0.2227: real time      0.2235
    FORHAR:  cpu time      0.0888: real time      0.0892
    MIXING:  cpu time      0.0040: real time      0.0040
    OFIELD:  cpu time      0.0000: real time      0.0000

  FORCE on cell =-STRESS in cart. coord.  units (eV):
  Direction    XX          YY          ZZ          XY          YZ          ZX
  --------------------------------------------------------------------------------------
  Alpha Z  2970.02516  2970.02516  2970.02516
  Ewald  -29135.61458-29135.63792-29135.63792     1.83019     0.00415     1.83019
  Hartree 17917.59019 17917.57722 17917.57722     0.58863    -0.00070     0.58863
  E(xc)   -6072.21210 -6072.21211 -6072.21211     0.00177     0.00044     0.00177
  Local   -4111.81726 -4111.78131 -4111.78131    -2.36214    -0.00267    -2.36214
  n-local  4316.18435  4323.99583  4308.37107     2.76309     0.00092    -2.56629
  augment  7702.48102  7702.48115  7702.48115    -0.02109    -0.00012    -0.02109
  Kinetic  6412.97672  6424.49705  6401.45684     3.65126     0.00002    -3.80673
  Fock        0.00000     0.00000     0.00000     0.00000     0.00000     0.00000
  -------------------------------------------------------------------------------------
  Total      -0.38649    -0.38742    -0.38742     0.05803     0.00204     0.05803
  in kB      -0.22065    -0.22118    -0.22118     0.03313     0.00116     0.03313
  external pressure =       -0.22 kB  Pullay stress =        0.00 kB


 VOLUME and BASIS-vectors are now :
 -----------------------------------------------------------------------------
  energy-cutoff  :      600.00
  volume of cell :     2806.40
      direct lattice vectors                 reciprocal lattice vectors
    -0.000000000 11.195406075 11.195406075    -0.044661176  0.044661176  0.044661176
    11.195406075 -0.000000000 11.195406075     0.044661176 -0.044661176  0.044661176
    11.195406075 11.195406075  0.000000000     0.044661176  0.044661176 -0.044661176

  length of vectors
    15.832695107 15.832695107 15.832695107     0.077355426  0.077355426  0.077355426


 FORCES acting on ions
    electron-ion (+dipol)            ewald-force                    non-local-force                 convergence-correction
 -----------------------------------------------------------------------------------------------
   -.257E-01 -.218E-01 -.218E-01   0.258E-01 0.214E-01 0.214E-01   -.782E-04 0.230E-03 0.230E-03   -.604E-05 0.122E-04 0.122E-04
   -.959E-01 0.174E-01 0.174E-01   0.946E-01 -.169E-01 -.169E-01   0.933E-03 -.325E-03 -.325E-03   0.171E-04 -.133E-05 -.133E-05
   0.959E-01 0.177E-01 0.177E-01   -.945E-01 -.172E-01 -.172E-01   -.950E-03 -.324E-03 -.324E-03   -.292E-06 -.872E-05 -.872E-05
   0.258E-01 -.218E-01 -.218E-01   -.259E-01 0.214E-01 0.214E-01   0.642E-04 0.228E-03 0.228E-03   0.169E-04 -.147E-05 -.147E-05
   -.611E-01 -.137E+00 -.166E-01   0.622E-01 0.137E+00 0.153E-01   -.877E-03 0.801E-04 0.864E-03   0.238E-05 0.128E-04 0.127E-04
   -.217E-02 0.403E+00 0.408E+00   0.202E-02 -.390E+00 -.394E+00   0.239E-03 -.661E-02 -.714E-02   0.151E-04 -.177E-04 -.149E-04
   0.615E-01 -.163E-01 -.138E+00   -.626E-01 0.150E-01 0.137E+00   0.858E-03 0.863E-03 0.917E-04   0.214E-04 0.121E-04 0.164E-05
   0.465E-04 -.358E-01 -.359E-01   -.345E-04 0.353E-01 0.354E-01   -.968E-05 0.411E-03 0.395E-03   -.155E-05 -.172E-04 0.902E-05
   0.340E-01 -.417E-01 0.787E-01   -.322E-01 0.427E-01 -.793E-01   -.123E-02 -.866E-03 0.554E-03   0.227E-04 0.215E-04 -.381E-05
   -.339E-01 0.790E-01 -.413E-01   0.322E-01 -.796E-01 0.423E-01   0.118E-02 0.545E-03 -.853E-03   -.602E-05 0.689E-06 -.114E-04
   -.963E-02 -.801E-02 -.380E-01   0.941E-02 0.777E-02 0.380E-01   0.208E-03 0.140E-03 -.153E-04   -.332E-06 0.910E-05 -.137E-04
   0.958E-02 -.379E-01 -.810E-02   -.936E-02 0.379E-01 0.785E-02   -.219E-03 -.572E-05 0.145E-03   0.811E-05 -.102E-04 0.726E-05
   0.578E-04 0.400E-02 0.405E-02   -.457E-04 -.439E-02 -.444E-02   0.104E-04 0.303E-03 0.315E-03   -.223E-04 -.637E-06 -.177E-04
   -.242E-01 0.628E-02 -.117E-01   0.233E-01 -.620E-02 0.121E-01   0.643E-03 -.390E-04 -.236E-03   0.927E-05 -.308E-05 -.902E-05
   -.434E-04 0.157E-02 0.153E-02   0.522E-04 -.159E-02 -.156E-02   0.845E-05 -.669E-04 -.695E-04   -.170E-04 0.925E-05 0.179E-04
   0.242E-01 -.117E-01 0.627E-02   -.233E-01 0.121E-01 -.619E-02   -.633E-03 -.258E-03 -.267E-04   -.262E-04 0.162E-04 -.124E-04
   -.611E-01 -.166E-01 -.137E+00   0.622E-01 0.153E-01 0.137E+00   -.877E-03 0.864E-03 0.801E-04   0.238E-05 0.127E-04 0.128E-04
   -.217E-02 0.408E+00 0.403E+00   0.202E-02 -.394E+00 -.390E+00   0.239E-03 -.714E-02 -.661E-02   0.151E-04 -.149E-04 -.177E-04
   0.615E-01 -.138E+00 -.163E-01   -.626E-01 0.137E+00 0.150E-01   0.858E-03 0.917E-04 0.863E-03   0.214E-04 0.164E-05 0.121E-04
   0.465E-04 -.359E-01 -.358E-01   -.345E-04 0.354E-01 0.353E-01   -.968E-05 0.395E-03 0.411E-03   -.155E-05 0.902E-05 -.172E-04
   0.816E+00 -.414E+00 -.414E+00   -.796E+00 0.408E+00 0.408E+00   -.457E-01 0.391E-01 0.391E-01   0.391E-04 0.808E-05 0.808E-05
   -.826E+00 -.416E+00 -.416E+00   0.806E+00 0.410E+00 0.410E+00   0.473E-01 0.402E-01 0.402E-01   -.123E-05 0.330E-05 0.330E-05
   -.226E-01 -.596E-01 -.596E-01   0.215E-01 0.586E-01 0.586E-01   0.481E-03 0.117E-02 0.117E-02   0.136E-04 -.195E-04 -.195E-04
   0.223E-01 -.594E-01 -.594E-01   -.213E-01 0.584E-01 0.584E-01   -.442E-03 0.113E-02 0.113E-02   0.644E-05 0.953E-05 0.953E-05
   0.254E-03 0.448E-01 0.450E-01   -.242E-03 -.471E-01 -.473E-01   0.106E-04 0.175E-02 0.175E-02   -.248E-04 -.105E-04 -.223E-04
   -.490E-01 0.727E-02 -.287E-01   0.498E-01 -.267E-02 0.301E-01   -.108E-02 -.330E-02 -.162E-02   0.927E-05 0.830E-05 -.457E-05
   -.451E-04 -.154E-01 -.154E-01   0.550E-04 0.155E-01 0.155E-01   0.244E-05 -.293E-03 -.284E-03   -.137E-04 -.151E-05 -.224E-04
   0.489E-01 -.287E-01 0.717E-02   -.497E-01 0.302E-01 -.256E-02   0.110E-02 -.165E-02 -.335E-02   -.282E-04 0.808E-05 0.457E-04
   -.179E-01 0.189E-03 -.178E-01   0.182E-01 -.114E-02 0.171E-01   -.169E-03 0.685E-03 0.572E-03   -.250E-04 -.324E-05 0.903E-05
   -.309E-01 0.297E-01 -.106E-01   0.284E-01 -.240E-01 0.878E-02   0.276E-02 -.376E-02 0.224E-02   0.993E-05 -.163E-04 -.104E-04
   0.308E-01 -.105E-01 0.297E-01   -.283E-01 0.865E-02 -.241E-01   -.278E-02 0.222E-02 -.378E-02   0.202E-06 0.266E-04 0.690E-05
   0.180E-01 -.179E-01 0.220E-03   -.183E-01 0.172E-01 -.118E-02   0.176E-03 0.576E-03 0.699E-03   -.305E-05 -.211E-05 -.112E-04
   0.340E-01 0.787E-01 -.417E-01   -.322E-01 -.793E-01 0.427E-01   -.123E-02 0.554E-03 -.866E-03   0.227E-04 -.381E-05 0.215E-04
   -.339E-01 -.413E-01 0.790E-01   0.322E-01 0.423E-01 -.796E-01   0.118E-02 -.853E-03 0.545E-03   -.602E-05 -.114E-04 0.689E-06
   -.963E-02 -.380E-01 -.801E-02   0.941E-02 0.380E-01 0.777E-02   0.208E-03 -.153E-04 0.140E-03   -.332E-06 -.137E-04 0.910E-05
   0.958E-02 -.810E-02 -.379E-01   -.936E-02 0.785E-02 0.379E-01   -.219E-03 0.145E-03 -.572E-05   0.811E-05 0.726E-05 -.102E-04
   0.254E-03 0.450E-01 0.448E-01   -.242E-03 -.473E-01 -.471E-01   0.106E-04 0.175E-02 0.175E-02   -.248E-04 -.223E-04 -.105E-04
   -.490E-01 -.287E-01 0.727E-02   0.498E-01 0.301E-01 -.267E-02   -.108E-02 -.162E-02 -.330E-02   0.927E-05 -.457E-05 0.830E-05
   -.451E-04 -.154E-01 -.154E-01   0.550E-04 0.155E-01 0.155E-01   0.244E-05 -.284E-03 -.293E-03   -.137E-04 -.224E-04 -.151E-05
   0.489E-01 0.717E-02 -.287E-01   -.497E-01 -.256E-02 0.302E-01   0.110E-02 -.335E-02 -.165E-02   -.282E-04 0.457E-04 0.808E-05
   -.185E-01 0.862E-03 0.862E-03   0.186E-01 -.148E-02 -.148E-02   -.755E-04 0.473E-03 0.473E-03   -.484E-04 0.989E-05 0.989E-05
   -.146E-01 -.854E-03 -.854E-03   0.140E-01 0.152E-02 0.152E-02   0.215E-03 -.510E-03 -.510E-03   -.153E-04 -.859E-05 -.859E-05
   0.146E-01 -.830E-03 -.830E-03   -.140E-01 0.150E-02 0.150E-02   -.236E-03 -.513E-03 -.513E-03   0.173E-04 -.169E-04 -.169E-04
   0.186E-01 0.837E-03 0.837E-03   -.187E-01 -.145E-02 -.145E-02   0.760E-04 0.465E-03 0.465E-03   0.703E-05 0.147E-04 0.147E-04
   -.892E-02 0.104E-01 -.194E-01   0.927E-02 -.108E-01 0.193E-01   -.324E-03 0.257E-03 0.588E-04   0.156E-04 0.190E-04 0.125E-04
   -.324E-04 0.203E-01 0.202E-01   0.255E-04 -.197E-01 -.196E-01   -.883E-05 -.550E-03 -.540E-03   0.141E-04 0.730E-06 -.254E-05
   0.891E-02 -.194E-01 0.105E-01   -.928E-02 0.192E-01 -.109E-01   0.330E-03 0.744E-04 0.258E-03   0.595E-06 -.379E-05 0.399E-05
   0.870E-05 -.112E-01 -.112E-01   -.150E-04 0.109E-01 0.108E-01   -.691E-05 0.283E-03 0.272E-03   0.121E-04 -.181E-04 -.119E-04
   0.578E-04 0.405E-02 0.400E-02   -.457E-04 -.444E-02 -.439E-02   0.104E-04 0.315E-03 0.303E-03   -.223E-04 -.177E-04 -.637E-06
   -.242E-01 -.117E-01 0.628E-02   0.233E-01 0.121E-01 -.620E-02   0.643E-03 -.236E-03 -.390E-04   0.927E-05 -.902E-05 -.308E-05
   -.434E-04 0.153E-02 0.157E-02   0.522E-04 -.156E-02 -.159E-02   0.845E-05 -.695E-04 -.669E-04   -.170E-04 0.179E-04 0.925E-05
   0.242E-01 0.627E-02 -.117E-01   -.233E-01 -.619E-02 0.121E-01   -.633E-03 -.267E-04 -.258E-03   -.262E-04 -.124E-04 0.162E-04
   -.179E-01 -.178E-01 0.189E-03   0.182E-01 0.171E-01 -.114E-02   -.169E-03 0.572E-03 0.685E-03   -.250E-04 0.903E-05 -.324E-05
   -.309E-01 -.106E-01 0.297E-01   0.284E-01 0.878E-02 -.240E-01   0.276E-02 0.224E-02 -.376E-02   0.993E-05 -.104E-04 -.163E-04
   0.308E-01 0.297E-01 -.105E-01   -.283E-01 -.241E-01 0.865E-02   -.278E-02 -.378E-02 0.222E-02   0.202E-06 0.690E-05 0.266E-04
   0.180E-01 0.220E-03 -.179E-01   -.183E-01 -.118E-02 0.172E-01   0.176E-03 0.699E-03 0.576E-03   -.305E-05 -.112E-04 -.211E-05
   -.892E-02 -.194E-01 0.104E-01   0.927E-02 0.193E-01 -.108E-01   -.324E-03 0.588E-04 0.257E-03   0.156E-04 0.125E-04 0.190E-04
   -.324E-04 0.202E-01 0.203E-01   0.255E-04 -.196E-01 -.197E-01   -.883E-05 -.540E-03 -.550E-03   0.141E-04 -.254E-05 0.730E-06
   0.891E-02 0.105E-01 -.194E-01   -.928E-02 -.109E-01 0.192E-01   0.330E-03 0.258E-03 0.744E-04   0.595E-06 0.399E-05 -.379E-05
   0.870E-05 -.112E-01 -.112E-01   -.150E-04 0.108E-01 0.109E-01   -.691E-05 0.272E-03 0.283E-03   0.121E-04 -.119E-04 -.181E-04
   0.609E-02 0.628E-02 0.628E-02   -.505E-02 -.612E-02 -.612E-02   -.742E-03 -.799E-04 -.799E-04   0.955E-05 0.571E-05 0.571E-05
   -.605E-02 0.631E-02 0.631E-02   0.503E-02 -.616E-02 -.616E-02   0.721E-03 -.581E-04 -.581E-04   -.764E-05 -.793E-05 -.793E-05
   -.490E-02 -.630E-02 -.630E-02   0.471E-02 0.615E-02 0.615E-02   0.185E-03 0.719E-04 0.719E-04   -.115E-04 -.305E-05 -.305E-05
   0.491E-02 -.632E-02 -.632E-02   -.469E-02 0.616E-02 0.616E-02   -.218E-03 0.753E-04 0.753E-04   0.166E-04 0.478E-05 0.478E-05
   0.111E-01 0.236E+01 0.236E+01   -.126E-01 -.242E+01 -.242E+01   -.105E-03 -.156E-01 -.156E-01   0.227E-04 -.798E-06 -.798E-06
   0.348E-02 -.679E+00 -.679E+00   0.171E-12 0.680E+00 0.680E+00   -.217E-02 0.199E-02 0.199E-02   -.110E-04 -.478E-04 -.478E-04
   0.385E-04 -.164E+00 -.164E+00   0.256E-12 0.163E+00 0.163E+00   -.604E-04 0.382E-03 0.382E-03   0.300E-04 0.327E-04 0.327E-04
   -.319E-02 -.674E+00 -.674E+00   0.149E-12 0.675E+00 0.675E+00   0.196E-02 0.192E-02 0.192E-02   -.285E-04 -.722E-06 -.722E-06
   -.477E+00 0.278E+00 -.181E+00   0.487E+00 -.293E+00 0.189E+00   -.918E-02 0.129E-01 -.758E-02   0.971E-05 -.149E-04 -.546E-04
   -.846E-01 -.662E-01 -.145E+00   0.836E-01 0.686E-01 0.147E+00   0.823E-03 -.212E-02 -.211E-02   0.513E-04 -.179E-04 0.465E-04
   0.841E-01 -.144E+00 -.664E-01   -.831E-01 0.147E+00 0.687E-01   -.833E-03 -.207E-02 -.212E-02   -.642E-04 -.597E-04 0.859E-05
   0.477E+00 -.183E+00 0.275E+00   -.486E+00 0.191E+00 -.290E+00   0.913E-02 -.758E-02 0.129E-01   0.905E-05 0.505E-04 0.351E-04
   -.102E+00 0.233E-01 -.614E-01   0.103E+00 -.319E-01 0.606E-01   -.346E-03 0.717E-02 0.782E-03   -.428E-04 0.431E-04 -.929E-05
   -.185E-03 0.182E-01 0.179E-01   0.221E-03 -.148E-01 -.146E-01   0.974E-05 -.296E-02 -.296E-02   -.374E-04 -.412E-04 -.444E-04
   0.102E+00 -.614E-01 0.233E-01   -.103E+00 0.606E-01 -.319E-01   0.364E-03 0.758E-03 0.721E-02   0.205E-04 0.295E-04 0.296E-04
   0.260E-03 0.145E-01 0.148E-01   -.221E-03 -.146E-01 -.148E-01   -.799E-05 0.374E-03 0.383E-03   -.235E-04 0.288E-04 -.154E-04
   -.494E+00 0.272E+00 -.201E+00   0.486E+00 -.290E+00 0.191E+00   0.953E-02 0.149E-01 0.111E-01   0.176E-04 0.193E-05 0.182E-04
   0.495E+00 -.199E+00 0.274E+00   -.487E+00 0.189E+00 -.293E+00   -.952E-02 0.111E-01 0.149E-01   0.342E-04 0.918E-05 0.222E-04
   0.832E-01 -.146E+00 -.681E-01   -.836E-01 0.147E+00 0.686E-01   0.553E-03 -.424E-03 -.142E-03   -.803E-05 0.735E-05 -.532E-04
   -.826E-01 -.683E-01 -.146E+00   0.831E-01 0.687E-01 0.147E+00   -.542E-03 -.149E-03 -.392E-03   0.244E-04 0.181E-04 -.132E-05
   -.477E+00 -.181E+00 0.278E+00   0.487E+00 0.189E+00 -.293E+00   -.918E-02 -.758E-02 0.129E-01   0.971E-05 -.546E-04 -.149E-04
   -.846E-01 -.145E+00 -.662E-01   0.836E-01 0.147E+00 0.686E-01   0.823E-03 -.211E-02 -.212E-02   0.513E-04 0.465E-04 -.179E-04
   0.841E-01 -.664E-01 -.144E+00   -.831E-01 0.687E-01 0.147E+00   -.833E-03 -.212E-02 -.207E-02   -.642E-04 0.859E-05 -.597E-04
   0.477E+00 0.275E+00 -.183E+00   -.486E+00 -.290E+00 0.191E+00   0.913E-02 0.129E-01 -.758E-02   0.905E-05 0.351E-04 0.505E-04
   -.127E+00 -.227E-01 -.227E-01   0.130E+00 0.222E-01 0.222E-01   -.278E-02 0.442E-03 0.442E-03   0.880E-05 0.214E-04 0.214E-04
   -.178E-03 -.288E-01 -.288E-01   0.172E-03 0.298E-01 0.298E-01   -.233E-04 -.849E-03 -.849E-03   0.378E-04 -.487E-04 -.487E-04
   0.127E+00 -.229E-01 -.229E-01   -.130E+00 0.223E-01 0.223E-01   0.276E-02 0.443E-03 0.443E-03   0.349E-04 0.476E-04 0.476E-04
   0.516E-03 0.771E-01 0.771E-01   -.451E-03 -.772E-01 -.772E-01   0.462E-06 0.234E-03 0.234E-03   -.572E-04 -.481E-05 -.481E-05
   -.436E-01 0.615E-01 -.179E-01   0.465E-01 -.611E-01 0.171E-01   -.256E-02 -.406E-03 0.700E-03   -.284E-04 0.105E-04 -.335E-04
   0.434E-01 -.177E-01 0.616E-01   -.463E-01 0.168E-01 -.612E-01   0.257E-02 0.688E-03 -.393E-03   0.149E-04 0.894E-05 -.179E-06
   0.380E-01 -.444E-01 0.295E-03   -.385E-01 0.447E-01 0.871E-04   0.566E-03 -.103E-03 -.278E-03   -.436E-04 -.305E-04 0.300E-05
   -.378E-01 0.168E-03 -.444E-01   0.384E-01 0.208E-03 0.446E-01   -.558E-03 -.279E-03 -.111E-03   -.634E-05 0.908E-05 0.300E-04
   -.237E-04 0.296E+00 0.294E+00   0.959E-13 -.298E+00 -.295E+00   0.429E-05 0.157E-02 0.157E-02   0.268E-04 0.364E-05 0.613E-05
   -.974E-03 -.243E+00 0.785E-01   -.713E-13 0.244E+00 -.776E-01   0.992E-03 -.519E-03 -.740E-03   -.102E-04 -.101E-04 -.176E-04
   -.128E-04 -.824E-01 -.822E-01   -.320E-13 0.832E-01 0.829E-01   -.100E-04 -.673E-03 -.671E-03   0.309E-04 0.190E-04 0.349E-04
   0.100E-02 0.776E-01 -.243E+00   0.413E-13 -.767E-01 0.243E+00   -.984E-03 -.738E-03 -.500E-03   -.845E-05 -.269E-04 -.819E-05
   -.102E+00 -.614E-01 0.233E-01   0.103E+00 0.606E-01 -.319E-01   -.346E-03 0.782E-03 0.717E-02   -.428E-04 -.929E-05 0.431E-04
   -.185E-03 0.179E-01 0.182E-01   0.221E-03 -.146E-01 -.148E-01   0.974E-05 -.296E-02 -.296E-02   -.374E-04 -.444E-04 -.412E-04
   0.102E+00 0.233E-01 -.614E-01   -.103E+00 -.319E-01 0.606E-01   0.364E-03 0.721E-02 0.758E-03   0.205E-04 0.296E-04 0.295E-04
   0.260E-03 0.148E-01 0.145E-01   -.221E-03 -.148E-01 -.146E-01   -.799E-05 0.383E-03 0.374E-03   -.235E-04 -.154E-04 0.288E-04
   -.436E-01 -.179E-01 0.615E-01   0.465E-01 0.171E-01 -.611E-01   -.256E-02 0.700E-03 -.406E-03   -.284E-04 -.335E-04 0.105E-04
   0.434E-01 0.616E-01 -.177E-01   -.463E-01 -.612E-01 0.168E-01   0.257E-02 -.393E-03 0.688E-03   0.149E-04 -.179E-06 0.894E-05
   0.380E-01 0.295E-03 -.444E-01   -.385E-01 0.871E-04 0.447E-01   0.566E-03 -.278E-03 -.103E-03   -.436E-04 0.300E-05 -.305E-04
   -.378E-01 -.444E-01 0.168E-03   0.384E-01 0.446E-01 0.208E-03   -.558E-03 -.111E-03 -.279E-03   -.634E-05 0.300E-04 0.908E-05
   -.252E-04 0.409E-01 0.409E-01   -.142E-13 -.422E-01 -.422E-01   -.892E-05 0.115E-02 0.115E-02   0.418E-04 -.152E-04 -.152E-04
   -.567E-03 -.568E-02 -.568E-02   -.497E-13 0.609E-02 0.609E-02   0.572E-03 -.310E-03 -.310E-03   0.150E-04 -.157E-04 -.157E-04
   -.174E-04 -.292E-01 -.292E-01   0.114E-12 0.298E-01 0.298E-01   -.133E-04 -.517E-03 -.517E-03   0.386E-04 0.214E-04 0.214E-04
   0.564E-03 -.584E-02 -.584E-02   0.256E-12 0.622E-02 0.622E-02   -.578E-03 -.311E-03 -.311E-03   0.912E-05 0.861E-05 0.861E-05
   -.447E-01 -.171E-01 0.595E-01   0.463E-01 0.168E-01 -.612E-01   -.128E-02 0.172E-03 0.165E-02   0.108E-04 -.346E-06 -.131E-04
   -.387E-01 -.437E-01 0.847E-03   0.385E-01 0.447E-01 0.871E-04   0.197E-03 -.855E-03 -.864E-03   0.982E-05 -.314E-04 0.236E-04
   0.386E-01 0.742E-03 -.436E-01   -.384E-01 0.208E-03 0.446E-01   -.193E-03 -.848E-03 -.857E-03   -.434E-04 -.863E-05 -.804E-05
   0.449E-01 0.594E-01 -.174E-01   -.465E-01 -.611E-01 0.171E-01   0.127E-02 0.163E-02 0.193E-03   -.108E-04 0.534E-04 -.126E-04
   -.494E+00 -.201E+00 0.272E+00   0.486E+00 0.191E+00 -.290E+00   0.953E-02 0.111E-01 0.149E-01   0.176E-04 0.182E-04 0.193E-05
   0.495E+00 0.274E+00 -.199E+00   -.487E+00 -.293E+00 0.189E+00   -.952E-02 0.149E-01 0.111E-01   0.342E-04 0.222E-04 0.918E-05
   0.832E-01 -.681E-01 -.146E+00   -.836E-01 0.686E-01 0.147E+00   0.553E-03 -.142E-03 -.424E-03   -.803E-05 -.532E-04 0.735E-05
   -.826E-01 -.146E+00 -.683E-01   0.831E-01 0.147E+00 0.687E-01   -.542E-03 -.392E-03 -.149E-03   0.244E-04 -.132E-05 0.181E-04
   -.237E-04 0.294E+00 0.296E+00   0.497E-13 -.295E+00 -.298E+00   0.429E-05 0.157E-02 0.157E-02   0.268E-04 0.613E-05 0.364E-05
   -.974E-03 0.785E-01 -.243E+00   0.600E-13 -.776E-01 0.244E+00   0.992E-03 -.740E-03 -.519E-03   -.102E-04 -.176E-04 -.101E-04
   -.128E-04 -.822E-01 -.824E-01   0.107E-13 0.829E-01 0.832E-01   -.100E-04 -.671E-03 -.673E-03   0.309E-04 0.349E-04 0.190E-04
   0.100E-02 -.243E+00 0.776E-01   0.214E-13 0.243E+00 -.767E-01   -.984E-03 -.500E-03 -.738E-03   -.845E-05 -.819E-05 -.269E-04
   -.447E-01 0.595E-01 -.171E-01   0.463E-01 -.612E-01 0.168E-01   -.128E-02 0.165E-02 0.172E-03   0.108E-04 -.131E-04 -.346E-06
   -.387E-01 0.847E-03 -.437E-01   0.385E-01 0.871E-04 0.447E-01   0.197E-03 -.864E-03 -.855E-03   0.982E-05 0.236E-04 -.314E-04
   0.386E-01 -.436E-01 0.742E-03   -.384E-01 0.446E-01 0.208E-03   -.193E-03 -.857E-03 -.848E-03   -.434E-04 -.804E-05 -.863E-05
   0.449E-01 -.174E-01 0.594E-01   -.465E-01 0.171E-01 -.611E-01   0.127E-02 0.193E-03 0.163E-02   -.108E-04 -.126E-04 0.534E-04
   -.129E+00 -.235E-01 -.235E-01   0.130E+00 0.223E-01 0.223E-01   -.564E-03 0.112E-02 0.112E-02   -.361E-04 -.637E-05 -.637E-05
   -.457E-03 0.791E-01 0.791E-01   0.451E-03 -.772E-01 -.772E-01   -.461E-05 -.173E-02 -.173E-02   0.189E-04 -.281E-04 -.281E-04
   0.129E+00 -.234E-01 -.234E-01   -.130E+00 0.222E-01 0.222E-01   0.582E-03 0.110E-02 0.110E-02   -.140E-05 0.268E-04 0.268E-04
   0.226E-03 -.298E-01 -.298E-01   -.172E-03 0.298E-01 0.298E-01   0.412E-05 0.119E-03 0.119E-03   -.505E-04 0.938E-06 0.938E-06
 -----------------------------------------------------------------------------------------------
   -.118E-02 -.115E+00 -.115E+00   -.102E-11 -.331E-12 0.619E-12   0.145E-02 0.115E+00 0.115E+00   -.629E-04 0.282E-04 0.282E-04
 
 
 POSITION                                       TOTAL-FORCE (eV/Angst)
 -----------------------------------------------------------------------------------
      0.00000      0.00000      0.00000         0.000008     -0.000092     -0.000092
     -0.00000      2.79885      2.79885        -0.000398      0.000149      0.000149
     -0.00000      5.59770      5.59770         0.000392      0.000150      0.000150
     -0.00000      8.39655      8.39655        -0.000012     -0.000092     -0.000092
      2.79885     -0.00000      2.79885         0.000189     -0.000236     -0.000414
      2.79885      2.79885      5.59770         0.000107      0.006674      0.006529
      2.79885      5.59770      8.39655        -0.000191     -0.000416     -0.000236
      2.79885      8.39655     11.19541        -0.000001     -0.000068     -0.000071
      5.59770     -0.00000      5.59770         0.000560      0.000159     -0.000041
      5.59770      2.79885      8.39655        -0.000568     -0.000039      0.000158
      5.59770      5.59770     11.19541        -0.000015     -0.000100     -0.000039
      5.59770      8.39655     13.99426         0.000011     -0.000037     -0.000100
      8.39655     -0.00000      8.39655        -0.000001     -0.000101     -0.000102
      8.39655      2.79885     11.19541        -0.000247      0.000033      0.000176
      8.39655      5.59770     13.99426        -0.000001     -0.000088     -0.000088
      8.39655      8.39655     16.79311         0.000244      0.000175      0.000033
      2.79885      2.79885      0.00000         0.000189     -0.000414     -0.000236
      2.79885      5.59770      2.79885         0.000107      0.006529      0.006674
      2.79885      8.39655      5.59770        -0.000191     -0.000236     -0.000416
      2.79885     11.19541      8.39655        -0.000001     -0.000071     -0.000068
      5.59770      2.79885      2.79885        -0.026376      0.033123      0.033123
      5.59770      5.59770      5.59770         0.027540      0.033984      0.033984
      5.59770      8.39655      8.39655        -0.000562      0.000105      0.000105
      5.59770     11.19541     11.19541         0.000549      0.000094      0.000094
      8.39655      2.79885      5.59770        -0.000004     -0.000600     -0.000606
      8.39655      5.59770      8.39655        -0.000263      0.001304     -0.000173
      8.39655      8.39655     11.19541        -0.000003     -0.000229     -0.000229
      8.39655     11.19541     13.99426         0.000259     -0.000176      0.001302
     11.19541      2.79885      8.39655         0.000101     -0.000277     -0.000172
     11.19541      5.59770     11.19541         0.000269      0.001863      0.000360
     11.19541      8.39655     13.99426        -0.000278      0.000359      0.001855
     11.19541     11.19541     16.79311        -0.000105     -0.000172     -0.000276
      5.59770      5.59770      0.00000         0.000560     -0.000041      0.000159
      5.59770      8.39655      2.79885        -0.000568      0.000158     -0.000039
      5.59770     11.19541      5.59770        -0.000015     -0.000039     -0.000100
      5.59770     13.99426      8.39655         0.000011     -0.000100     -0.000037
      8.39655      5.59770      2.79885        -0.000004     -0.000606     -0.000600
      8.39655      8.39655      5.59770        -0.000263     -0.000173      0.001304
      8.39655     11.19541      8.39655        -0.000003     -0.000229     -0.000229
      8.39655     13.99426     11.19541         0.000259      0.001302     -0.000176
     11.19541      5.59770      5.59770         0.000026     -0.000140     -0.000140
     11.19541      8.39655      8.39655        -0.000370      0.000138      0.000138
     11.19541     11.19541     11.19541         0.000363      0.000138      0.000138
     11.19541     13.99426     13.99426        -0.000032     -0.000140     -0.000140
     13.99426      5.59770      8.39655         0.000038     -0.000128     -0.000067
     13.99426      8.39655     11.19541        -0.000003      0.000086      0.000087
     13.99426     11.19541     13.99426        -0.000040     -0.000067     -0.000127
     13.99426     13.99426     16.79311        -0.000003     -0.000093     -0.000093
      8.39655      8.39655      0.00000        -0.000001     -0.000102     -0.000101
      8.39655     11.19541      2.79885        -0.000247      0.000176      0.000033
      8.39655     13.99426      5.59770        -0.000001     -0.000088     -0.000088
      8.39655     16.79311      8.39655         0.000244      0.000033      0.000175
     11.19541      8.39655      2.79885         0.000101     -0.000172     -0.000277
     11.19541     11.19541      5.59770         0.000269      0.000360      0.001863
     11.19541     13.99426      8.39655        -0.000278      0.001855      0.000359
     11.19541     16.79311     11.19541        -0.000105     -0.000276     -0.000172
     13.99426      8.39655      5.59770         0.000038     -0.000067     -0.000128
     13.99426     11.19541      8.39655        -0.000003      0.000087      0.000086
     13.99426     13.99426     11.19541        -0.000040     -0.000127     -0.000067
     13.99426     16.79311     13.99426        -0.000003     -0.000093     -0.000093
     16.79311      8.39655      8.39655         0.000307      0.000072      0.000072
     16.79311     11.19541     11.19541        -0.000313      0.000074      0.000074
     16.79311     13.99426     13.99426        -0.000014     -0.000082     -0.000082
     16.79311     16.79311     16.79311         0.000008     -0.000082     -0.000082
      4.19828      4.20535      4.20535        -0.001604     -0.080469     -0.080469
      4.19828      6.99713      6.99713         0.001294      0.002121      0.002121
      4.19828      9.79598      9.79598         0.000007      0.000188      0.000188
      4.19828     12.59483     12.59483        -0.001257      0.002087      0.002087
      6.99713      4.19828      6.99713         0.000486     -0.002165      0.000354
      6.99713      6.99713      9.79598        -0.000100      0.000201      0.000155
      6.99713      9.79598     12.59483         0.000114      0.000154      0.000200
      6.99713     12.59483     15.39368        -0.000475      0.000341     -0.002170
      9.79598      4.19828      9.79598         0.000204     -0.001320     -0.000012
      9.79598      6.99713     12.59483         0.000007      0.000308      0.000307
      9.79598      9.79598     15.39368        -0.000192     -0.000010     -0.001318
      9.79598     12.59483     18.19253         0.000006      0.000308      0.000308
     12.59483      4.19828     12.59483         0.001756     -0.003445      0.001627
     12.59483      6.99713     15.39368        -0.001754      0.001622     -0.003442
     12.59483      9.79598     18.19253         0.000069      0.000113      0.000242
     12.59483     12.59483     20.99139        -0.000059      0.000242      0.000112
      6.99713      6.99713      4.19828         0.000486      0.000354     -0.002165
      6.99713      9.79598      6.99713        -0.000100      0.000155      0.000201
      6.99713     12.59483      9.79598         0.000114      0.000200      0.000154
      6.99713     15.39368     12.59483        -0.000475     -0.002170      0.000341
      9.79598      6.99713      6.99713         0.000297     -0.000115     -0.000115
      9.79598      9.79598      9.79598         0.000008      0.000073      0.000073
      9.79598     12.59483     12.59483        -0.000285     -0.000115     -0.000115
      9.79598     15.39368     15.39368         0.000007      0.000154      0.000154
     12.59483      6.99713      9.79598         0.000321     -0.000006     -0.000137
     12.59483      9.79598     12.59483        -0.000309     -0.000137     -0.000009
     12.59483     12.59483     15.39368        -0.000002      0.000072      0.000101
     12.59483     15.39368     18.19253         0.000014      0.000102      0.000072
     15.39368      6.99713     12.59483         0.000006     -0.000133     -0.000131
     15.39368      9.79598     15.39368         0.000006      0.000064      0.000153
     15.39368     12.59483     18.19253         0.000006      0.000080      0.000080
     15.39368     15.39368     20.99139         0.000007      0.000155      0.000062
      9.79598      9.79598      4.19828         0.000204     -0.000012     -0.001320
      9.79598     12.59483      6.99713         0.000007      0.000307      0.000308
      9.79598     15.39368      9.79598        -0.000192     -0.001318     -0.000010
      9.79598     18.19253     12.59483         0.000006      0.000308      0.000308
     12.59483      9.79598      6.99713         0.000321     -0.000137     -0.000006
     12.59483     12.59483      9.79598        -0.000309     -0.000009     -0.000137
     12.59483     15.39368     12.59483        -0.000002      0.000101      0.000072
     12.59483     18.19253     15.39368         0.000014      0.000072      0.000102
     15.39368      9.79598      9.79598         0.000006     -0.000210     -0.000210
     15.39368     12.59483     12.59483         0.000019      0.000078      0.000078
     15.39368     15.39368     15.39368         0.000006      0.000083      0.000083
     15.39368     18.19253     18.19253        -0.000007      0.000079      0.000079
     18.19253      9.79598     12.59483         0.000363     -0.000096     -0.000049
     18.19253     12.59483     15.39368        -0.000000      0.000086      0.000088
     18.19253     15.39368     18.19253         0.000011      0.000088      0.000086
     18.19253     18.19253     20.99139        -0.000352     -0.000049     -0.000097
     12.59483     12.59483      4.19828         0.001756      0.001627     -0.003445
     12.59483     15.39368      6.99713        -0.001754     -0.003442      0.001622
     12.59483     18.19253      9.79598         0.000069      0.000242      0.000113
     12.59483     20.99139     12.59483        -0.000059      0.000112      0.000242
     15.39368     12.59483      6.99713         0.000006     -0.000131     -0.000133
     15.39368     15.39368      9.79598         0.000006      0.000153      0.000064
     15.39368     18.19253     12.59483         0.000006      0.000080      0.000080
     15.39368     20.99139     15.39368         0.000007      0.000062      0.000155
     18.19253     12.59483      9.79598         0.000363     -0.000049     -0.000096
     18.19253     15.39368     12.59483        -0.000000      0.000088      0.000086
     18.19253     18.19253     15.39368         0.000011      0.000086      0.000088
     18.19253     20.99139     18.19253        -0.000352     -0.000097     -0.000049
     20.99139     12.59483     12.59483         0.000213     -0.000114     -0.000114
     20.99139     15.39368     15.39368         0.000006      0.000153      0.000153
     20.99139     18.19253     18.19253        -0.000203     -0.000114     -0.000114
     20.99139     20.99139     20.99139         0.000006      0.000072      0.000072
 -----------------------------------------------------------------------------------
    total drift:                                0.000210      0.000673      0.000673


--------------------------------------------------------------------------------------------------------



  FREE ENERGIE OF THE ION-ELECTRON SYSTEM (eV)
  ---------------------------------------------------
  free  energy   TOTEN  =      -633.20280582 eV

  energy  without entropy=     -633.20280582  energy(sigma->0) =     -633.20280582
 


--------------------------------------------------------------------------------------------------------


    POTLOK:  cpu time      0.2440: real time      0.2469


--------------------------------------------------------------------------------------------------------


 writing wavefunctions
     LOOP+:  cpu time   1483.9439: real time   1490.7058
    4ORBIT:  cpu time      0.0000: real time      0.0000

 total amount of memory used by VASP MPI-rank0   115875. kBytes
=======================================================================

   base      :      30000. kBytes
   nonl-proj :      28937. kBytes
   fftplans  :       6015. kBytes
   grid      :       8672. kBytes
   one-center:        124. kBytes
   wavefun   :      42127. kBytes
 
  
  
 General timing and accounting informations for this job:
 ========================================================
  
                  Total CPU time used (sec):     1563.360
                            User time (sec):     1550.983
                          System time (sec):       12.377
                         Elapsed time (sec):     1572.195
  
                   Maximum memory used (kb):      892892.
                   Average memory used (kb):          N/A
  
                          Minor page faults:        80108
                          Major page faults:           34
                 Voluntary context switches:         3615
