<?xml version="1.0" encoding="ISO-8859-1"?>
<modeling>
 <generator>
  <i name="program" type="string">vasp </i>
  <i name="version" type="string">6.4.3  </i>
  <i name="subversion" type="string">19Mar24 (build Jul 11 2024 12:30:41) complex                          parallel </i>
  <i name="platform" type="string">LinuxIFC </i>
  <i name="date" type="string">2025 12 02 </i>
  <i name="time" type="string">21:22:17 </i>
 </generator>
 <incar>
  <i type="string" name="SYSTEM">SiGe</i>
  <i type="int" name="ISTART">     0</i>
  <i type="string" name="PREC">Accurate</i>
  <i type="int" name="ICHARG">     2</i>
  <i type="int" name="NELM">   200</i>
  <i name="EDIFF">      0.00000001</i>
  <i name="EDIFFG">     -0.00002000</i>
  <i name="ENCUT">    600.00000000</i>
  <i type="int" name="ISMEAR">     0</i>
  <i name="SIGMA">      0.01000000</i>
 </incar>
 <primitive_cell>
  <structure name="primitive_cell" >
   <crystal>
    <varray name="basis" >
     <v>      -0.00000000      11.19540607      11.19540607 </v>
     <v>      11.19540607      -0.00000000      11.19540607 </v>
     <v>      11.19540607      11.19540607       0.00000000 </v>
    </varray>
    <i name="volume">   2806.39984618 </i>
    <varray name="rec_basis" >
     <v>      -0.04466118       0.04466118       0.04466118 </v>
     <v>       0.04466118      -0.04466118       0.04466118 </v>
     <v>       0.04466118       0.04466118      -0.04466118 </v>
    </varray>
   </crystal>
   <varray name="positions" >
    <v>       0.00000000       0.00000000       0.00000000 </v>
    <v>       0.25000000       0.00000000       1.00000000 </v>
    <v>       0.50000000       0.00000000       1.00000000 </v>
    <v>       0.75000000       0.00000000       1.00000000 </v>
    <v>       1.00000000       0.25000000       0.00000000 </v>
    <v>       0.25000000       0.25000000       1.00000000 </v>
    <v>       0.50000000       0.25000000       1.00000000 </v>
    <v>       0.75000000       0.25000000       1.00000000 </v>
    <v>       1.00000000       0.50000000       0.00000000 </v>
    <v>       0.25000000       0.50000000       0.00000000 </v>
    <v>       0.50000000       0.50000000       1.00000000 </v>
    <v>       0.75000000       0.50000000       1.00000000 </v>
    <v>       1.00000000       0.75000000       0.00000000 </v>
    <v>       0.25000000       0.75000000       0.00000000 </v>
    <v>       0.50000000       0.75000000       1.00000000 </v>
    <v>       0.75000000       0.75000000       1.00000000 </v>
    <v>       0.00000000       0.00000000       0.25000000 </v>
    <v>       0.25000000       0.00000000       0.25000000 </v>
    <v>       0.50000000       0.00000000       0.25000000 </v>
    <v>       0.75000000       0.00000000       0.25000000 </v>
    <v>       0.00000000       0.25000000       0.25000000 </v>
    <v>       0.25000000       0.25000000       0.25000000 </v>
    <v>       0.50000000       0.25000000       0.25000000 </v>
    <v>       0.75000000       0.25000000       0.25000000 </v>
    <v>       0.00000000       0.50000000       0.25000000 </v>
    <v>       0.25000000       0.50000000       0.25000000 </v>
    <v>       0.50000000       0.50000000       0.25000000 </v>
    <v>       0.75000000       0.50000000       0.25000000 </v>
    <v>       0.00000000       0.75000000       0.25000000 </v>
    <v>       0.25000000       0.75000000       0.25000000 </v>
    <v>       0.50000000       0.75000000       0.25000000 </v>
    <v>       0.75000000       0.75000000       0.25000000 </v>
    <v>       0.00000000       0.00000000       0.50000000 </v>
    <v>       0.25000000       0.00000000       0.50000000 </v>
    <v>       0.50000000       0.00000000       0.50000000 </v>
    <v>       0.75000000       0.00000000       0.50000000 </v>
    <v>       0.00000000       0.25000000       0.50000000 </v>
    <v>       0.25000000       0.25000000       0.50000000 </v>
    <v>       0.50000000       0.25000000       0.50000000 </v>
    <v>       0.75000000       0.25000000       0.50000000 </v>
    <v>       0.00000000       0.50000000       0.50000000 </v>
    <v>       0.25000000       0.50000000       0.50000000 </v>
    <v>       0.50000000       0.50000000       0.50000000 </v>
    <v>       0.75000000       0.50000000       0.50000000 </v>
    <v>       0.00000000       0.75000000       0.50000000 </v>
    <v>       0.25000000       0.75000000       0.50000000 </v>
    <v>       0.50000000       0.75000000       0.50000000 </v>
    <v>       0.75000000       0.75000000       0.50000000 </v>
    <v>       0.00000000       0.00000000       0.75000000 </v>
    <v>       0.25000000       0.00000000       0.75000000 </v>
    <v>       0.50000000       0.00000000       0.75000000 </v>
    <v>       0.75000000       0.00000000       0.75000000 </v>
    <v>       0.00000000       0.25000000       0.75000000 </v>
    <v>       0.25000000       0.25000000       0.75000000 </v>
    <v>       0.50000000       0.25000000       0.75000000 </v>
    <v>       0.75000000       0.25000000       0.75000000 </v>
    <v>       0.00000000       0.50000000       0.75000000 </v>
    <v>       0.25000000       0.50000000       0.75000000 </v>
    <v>       0.50000000       0.50000000       0.75000000 </v>
    <v>       0.75000000       0.50000000       0.75000000 </v>
    <v>       0.00000000       0.75000000       0.75000000 </v>
    <v>       0.25000000       0.75000000       0.75000000 </v>
    <v>       0.50000000       0.75000000       0.75000000 </v>
    <v>       0.75000000       0.75000000       0.75000000 </v>
    <v>       0.18813160       0.18750000       0.18750000 </v>
    <v>       0.43750000       0.18750000       0.18750000 </v>
    <v>       0.68750000       0.18750000       0.18750000 </v>
    <v>       0.93750000       0.18750000       0.18750000 </v>
    <v>       0.18750000       0.43750000       0.18750000 </v>
    <v>       0.43750000       0.43750000       0.18750000 </v>
    <v>       0.68750000       0.43750000       0.18750000 </v>
    <v>       0.93750000       0.43750000       0.18750000 </v>
    <v>       0.18750000       0.68750000       0.18750000 </v>
    <v>       0.43750000       0.68750000       0.18750000 </v>
    <v>       0.68750000       0.68750000       0.18750000 </v>
    <v>       0.93750000       0.68750000       0.18750000 </v>
    <v>       0.18750000       0.93750000       0.18750000 </v>
    <v>       0.43750000       0.93750000       0.18750000 </v>
    <v>       0.68750000       0.93750000       0.18750000 </v>
    <v>       0.93750000       0.93750000       0.18750000 </v>
    <v>       0.18750000       0.18750000       0.43750000 </v>
    <v>       0.43750000       0.18750000       0.43750000 </v>
    <v>       0.68750000       0.18750000       0.43750000 </v>
    <v>       0.93750000       0.18750000       0.43750000 </v>
    <v>       0.18750000       0.43750000       0.43750000 </v>
    <v>       0.43750000       0.43750000       0.43750000 </v>
    <v>       0.68750000       0.43750000       0.43750000 </v>
    <v>       0.93750000       0.43750000       0.43750000 </v>
    <v>       0.18750000       0.68750000       0.43750000 </v>
    <v>       0.43750000       0.68750000       0.43750000 </v>
    <v>       0.68750000       0.68750000       0.43750000 </v>
    <v>       0.93750000       0.68750000       0.43750000 </v>
    <v>       0.18750000       0.93750000       0.43750000 </v>
    <v>       0.43750000       0.93750000       0.43750000 </v>
    <v>       0.68750000       0.93750000       0.43750000 </v>
    <v>       0.93750000       0.93750000       0.43750000 </v>
    <v>       0.18750000       0.18750000       0.68750000 </v>
    <v>       0.43750000       0.18750000       0.68750000 </v>
    <v>       0.68750000       0.18750000       0.68750000 </v>
    <v>       0.93750000       0.18750000       0.68750000 </v>
    <v>       0.18750000       0.43750000       0.68750000 </v>
    <v>       0.43750000       0.43750000       0.68750000 </v>
    <v>       0.68750000       0.43750000       0.68750000 </v>
    <v>       0.93750000       0.43750000       0.68750000 </v>
    <v>       0.18750000       0.68750000       0.68750000 </v>
    <v>       0.43750000       0.68750000       0.68750000 </v>
    <v>       0.68750000       0.68750000       0.68750000 </v>
    <v>       0.93750000       0.68750000       0.68750000 </v>
    <v>       0.18750000       0.93750000       0.68750000 </v>
    <v>       0.43750000       0.93750000       0.68750000 </v>
    <v>       0.68750000       0.93750000       0.68750000 </v>
    <v>       0.93750000       0.93750000       0.68750000 </v>
    <v>       0.18750000       0.18750000       0.93750000 </v>
    <v>       0.43750000       0.18750000       0.93750000 </v>
    <v>       0.68750000       0.18750000       0.93750000 </v>
    <v>       0.93750000       0.18750000       0.93750000 </v>
    <v>       0.18750000       0.43750000       0.93750000 </v>
    <v>       0.43750000       0.43750000       0.93750000 </v>
    <v>       0.68750000       0.43750000       0.93750000 </v>
    <v>       0.93750000       0.43750000       0.93750000 </v>
    <v>       0.18750000       0.68750000       0.93750000 </v>
    <v>       0.43750000       0.68750000       0.93750000 </v>
    <v>       0.68750000       0.68750000       0.93750000 </v>
    <v>       0.93750000       0.68750000       0.93750000 </v>
    <v>       0.18750000       0.93750000       0.93750000 </v>
    <v>       0.43750000       0.93750000       0.93750000 </v>
    <v>       0.68750000       0.93750000       0.93750000 </v>
    <v>       0.93750000       0.93750000       0.93750000 </v>
   </varray>
  </structure>
  <varray name="primitive_index" >
   <v type="int" >        1 </v>
   <v type="int" >        2 </v>
   <v type="int" >        3 </v>
   <v type="int" >        4 </v>
   <v type="int" >        5 </v>
   <v type="int" >        6 </v>
   <v type="int" >        7 </v>
   <v type="int" >        8 </v>
   <v type="int" >        9 </v>
   <v type="int" >       10 </v>
   <v type="int" >       11 </v>
   <v type="int" >       12 </v>
   <v type="int" >       13 </v>
   <v type="int" >       14 </v>
   <v type="int" >       15 </v>
   <v type="int" >       16 </v>
   <v type="int" >       17 </v>
   <v type="int" >       18 </v>
   <v type="int" >       19 </v>
   <v type="int" >       20 </v>
   <v type="int" >       21 </v>
   <v type="int" >       22 </v>
   <v type="int" >       23 </v>
   <v type="int" >       24 </v>
   <v type="int" >       25 </v>
   <v type="int" >       26 </v>
   <v type="int" >       27 </v>
   <v type="int" >       28 </v>
   <v type="int" >       29 </v>
   <v type="int" >       30 </v>
   <v type="int" >       31 </v>
   <v type="int" >       32 </v>
   <v type="int" >       33 </v>
   <v type="int" >       34 </v>
   <v type="int" >       35 </v>
   <v type="int" >       36 </v>
   <v type="int" >       37 </v>
   <v type="int" >       38 </v>
   <v type="int" >       39 </v>
   <v type="int" >       40 </v>
   <v type="int" >       41 </v>
   <v type="int" >       42 </v>
   <v type="int" >       43 </v>
   <v type="int" >       44 </v>
   <v type="int" >       45 </v>
   <v type="int" >       46 </v>
   <v type="int" >       47 </v>
   <v type="int" >       48 </v>
   <v type="int" >       49 </v>
   <v type="int" >       50 </v>
   <v type="int" >       51 </v>
   <v type="int" >       52 </v>
   <v type="int" >       53 </v>
   <v type="int" >       54 </v>
   <v type="int" >       55 </v>
   <v type="int" >       56 </v>
   <v type="int" >       57 </v>
   <v type="int" >       58 </v>
   <v type="int" >       59 </v>
   <v type="int" >       60 </v>
   <v type="int" >       61 </v>
   <v type="int" >       62 </v>
   <v type="int" >       63 </v>
   <v type="int" >       64 </v>
   <v type="int" >       65 </v>
   <v type="int" >       66 </v>
   <v type="int" >       67 </v>
   <v type="int" >       68 </v>
   <v type="int" >       69 </v>
   <v type="int" >       70 </v>
   <v type="int" >       71 </v>
   <v type="int" >       72 </v>
   <v type="int" >       73 </v>
   <v type="int" >       74 </v>
   <v type="int" >       75 </v>
   <v type="int" >       76 </v>
   <v type="int" >       77 </v>
   <v type="int" >       78 </v>
   <v type="int" >       79 </v>
   <v type="int" >       80 </v>
   <v type="int" >       81 </v>
   <v type="int" >       82 </v>
   <v type="int" >       83 </v>
   <v type="int" >       84 </v>
   <v type="int" >       85 </v>
   <v type="int" >       86 </v>
   <v type="int" >       87 </v>
   <v type="int" >       88 </v>
   <v type="int" >       89 </v>
   <v type="int" >       90 </v>
   <v type="int" >       91 </v>
   <v type="int" >       92 </v>
   <v type="int" >       93 </v>
   <v type="int" >       94 </v>
   <v type="int" >       95 </v>
   <v type="int" >       96 </v>
   <v type="int" >       97 </v>
   <v type="int" >       98 </v>
   <v type="int" >       99 </v>
   <v type="int" >      100 </v>
   <v type="int" >      101 </v>
   <v type="int" >      102 </v>
   <v type="int" >      103 </v>
   <v type="int" >      104 </v>
   <v type="int" >      105 </v>
   <v type="int" >      106 </v>
   <v type="int" >      107 </v>
   <v type="int" >      108 </v>
   <v type="int" >      109 </v>
   <v type="int" >      110 </v>
   <v type="int" >      111 </v>
   <v type="int" >      112 </v>
   <v type="int" >      113 </v>
   <v type="int" >      114 </v>
   <v type="int" >      115 </v>
   <v type="int" >      116 </v>
   <v type="int" >      117 </v>
   <v type="int" >      118 </v>
   <v type="int" >      119 </v>
   <v type="int" >      120 </v>
   <v type="int" >      121 </v>
   <v type="int" >      122 </v>
   <v type="int" >      123 </v>
   <v type="int" >      124 </v>
   <v type="int" >      125 </v>
   <v type="int" >      126 </v>
   <v type="int" >      127 </v>
   <v type="int" >      128 </v>
  </varray>
 </primitive_cell>
 <kpoints>
  <generation param="Gamma">
   <v type="int" name="divisions">       3        3        3 </v>
   <v name="usershift">      0.00000000       0.00000000       0.00000000 </v>
   <v name="genvec1">      0.33333333       0.00000000      -0.00000000 </v>
   <v name="genvec2">      0.00000000       0.33333333       0.00000000 </v>
   <v name="genvec3">     -0.00000000       0.00000000       0.33333333 </v>
   <v name="shift">      0.00000000       0.00000000       0.00000000 </v>
  </generation>
  <varray name="kpointlist" >
   <v>       0.00000000       0.00000000       0.00000000 </v>
   <v>       0.33333333       0.00000000       0.00000000 </v>
   <v>       0.00000000       0.33333333       0.00000000 </v>
   <v>       0.33333333       0.33333333       0.33333333 </v>
   <v>       0.33333333       0.33333333       0.00000000 </v>
   <v>       0.00000000       0.33333333       0.33333333 </v>
   <v>      -0.33333333       0.33333333       0.00000000 </v>
   <v>       0.00000000      -0.33333333       0.33333333 </v>
   <v>       0.33333333       0.33333333      -0.33333333 </v>
   <v>       0.33333333      -0.33333333      -0.33333333 </v>
  </varray>
  <varray name="weights" >
   <v>       0.03703704 </v>
   <v>       0.07407407 </v>
   <v>       0.14814815 </v>
   <v>       0.07407407 </v>
   <v>       0.14814815 </v>
   <v>       0.07407407 </v>
   <v>       0.14814815 </v>
   <v>       0.07407407 </v>
   <v>       0.14814815 </v>
   <v>       0.07407407 </v>
  </varray>
 </kpoints>
 <parameters>
  <separator name="general" >
   <i type="string" name="SYSTEM">SiGe</i>
   <i type="logical" name="LCOMPAT"> F  </i>
  </separator>
  <separator name="electronic" >
   <i type="string" name="PREC">accura</i>
   <i name="ENMAX">    600.00000000</i>
   <i name="ENAUG">    531.35600000</i>
   <i name="EDIFF">      0.00000001</i>
   <i type="int" name="IALGO">    38</i>
   <i type="int" name="IWAVPR">    10</i>
   <i type="int" name="NBANDS">   704</i>
   <i type="int" name="NBANDSLOW">    -1</i>
   <i type="int" name="NBANDSHIGH">    -1</i>
   <i name="NELECT">   1152.00000000</i>
   <i type="int" name="TURBO">     0</i>
   <i type="int" name="IRESTART">     0</i>
   <i type="int" name="NREBOOT">     0</i>
   <i type="int" name="NMIN">     0</i>
   <i name="EREF">      0.00000000</i>
   <separator name="electronic smearing" >
    <i type="int" name="ISMEAR">     0</i>
    <i name="SIGMA">      0.01000000</i>
    <i name="KSPACING">      0.50000000</i>
    <i type="logical" name="KGAMMA"> T  </i>
    <i type="logical" name="KBLOWUP"> T  </i>
   </separator>
   <separator name="electronic projectors" >
    <i type="logical" name="LREAL"> F  </i>
    <v name="ROPT">      0.00000000      0.00000000</v>
    <i type="int" name="LMAXPAW">  -100</i>
    <i type="int" name="LMAXMIX">     2</i>
    <i type="logical" name="NLSPLINE"> F  </i>
   </separator>
   <separator name="electronic startup" >
    <i type="int" name="ISTART">     0</i>
    <i type="int" name="ICHARG">     2</i>
    <i type="int" name="INIWAV">     1</i>
   </separator>
   <separator name="electronic spin" >
    <i type="int" name="ISPIN">     1</i>
    <i type="logical" name="LNONCOLLINEAR"> F  </i>
    <v name="MAGMOM">      1.00000000      1.00000000      1.00000000      1.00000000      1.00000000      1.00000000      1.00000000      1.00000000      1.00000000      1.00000000      1.00000000      1.00000000      1.00000000      1.00000000      1.00000000      1.00000000      1.00000000      1.00000000      1.00000000      1.00000000
      1.00000000      1.00000000      1.00000000      1.00000000      1.00000000      1.00000000      1.00000000      1.00000000      1.00000000      1.00000000      1.00000000      1.00000000      1.00000000      1.00000000      1.00000000      1.00000000      1.00000000      1.00000000      1.00000000      1.00000000
      1.00000000      1.00000000      1.00000000      1.00000000      1.00000000      1.00000000      1.00000000      1.00000000      1.00000000      1.00000000      1.00000000      1.00000000      1.00000000      1.00000000      1.00000000      1.00000000      1.00000000      1.00000000      1.00000000      1.00000000
      1.00000000      1.00000000      1.00000000      1.00000000      1.00000000      1.00000000      1.00000000      1.00000000      1.00000000      1.00000000      1.00000000      1.00000000      1.00000000      1.00000000      1.00000000      1.00000000      1.00000000      1.00000000      1.00000000      1.00000000
      1.00000000      1.00000000      1.00000000      1.00000000      1.00000000      1.00000000      1.00000000      1.00000000      1.00000000      1.00000000      1.00000000      1.00000000      1.00000000      1.00000000      1.00000000      1.00000000      1.00000000      1.00000000      1.00000000      1.00000000
      1.00000000      1.00000000      1.00000000      1.00000000      1.00000000      1.00000000      1.00000000      1.00000000      1.00000000      1.00000000      1.00000000      1.00000000      1.00000000      1.00000000      1.00000000      1.00000000      1.00000000      1.00000000      1.00000000      1.00000000
      1.00000000      1.00000000      1.00000000      1.00000000      1.00000000      1.00000000      1.00000000      1.00000000</v>
    <i name="NUPDOWN">     -1.00000000</i>
    <i type="logical" name="LSORBIT"> F  </i>
    <v name="SAXIS">      0.00000000      0.00000000      1.00000000</v>
    <i type="logical" name="LSPIRAL"> F  </i>
    <v name="QSPIRAL">      0.00000000      0.00000000      0.00000000</v>
    <i type="logical" name="LZEROZ"> F  </i>
   </separator>
   <separator name="electronic exchange-correlation" >
    <i type="logical" name="LASPH"> F  </i>
   </separator>
   <separator name="electronic convergence" >
    <i type="int" name="NELM">   200</i>
    <i type="int" name="NELMDL">    -5</i>
    <i type="int" name="NELMIN">     2</i>
    <i name="ENINI">    600.00000000</i>
    <separator name="electronic convergence detail" >
     <i type="logical" name="LDIAG"> T  </i>
     <i type="logical" name="LSUBROT"> F  </i>
     <i name="WEIMIN">      0.00000000</i>
     <i name="EBREAK">      0.00000000</i>
     <i name="DEPER">      0.30000000</i>
     <i type="int" name="NRMM">     4</i>
     <i name="TIME">      0.40000000</i>
    </separator>
   </separator>
   <separator name="electronic mixer" >
    <i name="AMIX">      0.40000000</i>
    <i name="BMIX">      1.00000000</i>
    <i name="AMIN">      0.10000000</i>
    <i name="AMIX_MAG">      1.60000000</i>
    <i name="BMIX_MAG">      1.00000000</i>
    <separator name="electronic mixer details" >
     <i type="int" name="IMIX">     4</i>
     <i type="logical" name="MIXFIRST"> F  </i>
     <i type="int" name="MAXMIX">   -45</i>
     <i name="WC">    100.00000000</i>
     <i type="int" name="INIMIX">     1</i>
     <i type="int" name="MIXPRE">     1</i>
     <i type="int" name="MREMOVE">     5</i>
    </separator>
   </separator>
   <separator name="electronic dipolcorrection" >
    <i type="logical" name="LDIPOL"> F  </i>
    <i type="logical" name="LMONO"> F  </i>
    <i type="int" name="IDIPOL">     0</i>
    <i name="EPSILON">      1.00000000</i>
    <v name="DIPOL">   -100.00000000   -100.00000000   -100.00000000</v>
    <i name="EFIELD">      0.00000000</i>
    <i type="logical" name="LVACPOTAV"> F  </i>
   </separator>
  </separator>
  <separator name="grids" >
   <i type="int" name="NGX">   126</i>
   <i type="int" name="NGY">   126</i>
   <i type="int" name="NGZ">   126</i>
   <i type="int" name="NGXF">   252</i>
   <i type="int" name="NGYF">   252</i>
   <i type="int" name="NGZF">   252</i>
   <i type="logical" name="ADDGRID"> F  </i>
  </separator>
  <separator name="ionic" >
   <i type="int" name="NSW">     0</i>
   <i type="int" name="IBRION">    -1</i>
   <i type="int" name="MDALGO">     0</i>
   <i type="int" name="ISIF">     2</i>
   <i name="PSTRESS">      0.00000000</i>
   <i name="EDIFFG">     -0.00002000</i>
   <i type="int" name="NFREE">     0</i>
   <i name="POTIM">      0.50000000</i>
   <i name="SMASS">     -3.00000000</i>
   <i name="SCALEE">      1.00000000</i>
  </separator>
  <separator name="ionic md" >
   <i name="TEBEG">      0.00010000</i>
   <i name="TEEND">      0.00010000</i>
   <i type="int" name="NBLOCK">     1</i>
   <i type="int" name="KBLOCK">     1</i>
   <i type="int" name="NPACO">   256</i>
   <i name="APACO">     10.00000000</i>
  </separator>
  <separator name="symmetry" >
   <i type="int" name="ISYM">     2</i>
   <i name="SYMPREC">      0.00001000</i>
  </separator>
  <separator name="dos" >
   <i type="int" name="LORBIT">     0</i>
   <v name="RWIGS">     -1.00000000     -1.00000000</v>
   <i type="int" name="NEDOS">   301</i>
   <i name="EMIN">     10.00000000</i>
   <i name="EMAX">    -10.00000000</i>
   <i name="EFERMI">      0.00000000</i>
  </separator>
  <separator name="writing" >
   <i type="int" name="NWRITE">     2</i>
   <i type="logical" name="LWAVE"> T  </i>
   <i type="logical" name="LDOWNSAMPLE"> F  </i>
   <i type="logical" name="LCHARG"> T  </i>
   <i type="logical" name="LPARD"> F  </i>
   <i type="logical" name="LVTOT"> F  </i>
   <i type="logical" name="LVHAR"> F  </i>
   <i type="logical" name="LELF"> F  </i>
   <i type="logical" name="LOPTICS"> F  </i>
   <v name="STM">      0.00000000      0.00000000      0.00000000      0.00000000      0.00000000      0.00000000      0.00000000</v>
  </separator>
  <separator name="performance" >
   <i type="int" name="NPAR">    16</i>
   <i type="int" name="NSIM">     4</i>
   <i type="int" name="NBLK">    -1</i>
   <i type="logical" name="LPLANE"> T  </i>
   <i type="logical" name="LSCALAPACK"> T  </i>
   <i type="logical" name="LSCAAWARE"> T  </i>
   <i type="logical" name="LSCALU"> F  </i>
   <i type="logical" name="LASYNC"> F  </i>
   <i type="logical" name="LORBITALREAL"> F  </i>
  </separator>
  <separator name="miscellaneous" >
   <i type="int" name="IDIOT">     3</i>
   <i type="int" name="PHON_NSTRUCT">    -1</i>
   <i type="logical" name="LMUSIC"> F  </i>
   <v name="POMASS">     28.08500000     72.61000000</v>
   <v name="DARWINR">      0.00000000      0.00000000</v>
   <v name="DARWINV">      1.00000000      1.00000000</v>
   <i type="logical" name="LCORR"> T  </i>
  </separator>
  <i type="logical" name="GGA_COMPAT"> T  </i>
  <i type="logical" name="LBERRY"> F  </i>
  <i type="int" name="ICORELEVEL">     0</i>
  <i type="logical" name="LDAU"> F  </i>
  <i type="int" name="I_CONSTRAINED_M">     0</i>
  <separator name="electronic exchange-correlation" >
   <i type="string" name="GGA    ">PE</i>
   <i type="string" name="XC_C">1</i>
   <i type="int" name="VOSKOWN">     0</i>
   <i type="logical" name="LHFCALC"> F  </i>
   <i type="string" name="PRECFOCK"></i>
   <i type="logical" name="LSYMGRAD"> F  </i>
   <i type="logical" name="LHFONE"> F  </i>
   <i type="logical" name="LRHFCALC"> F  </i>
   <i type="logical" name="LTHOMAS"> F  </i>
   <i type="logical" name="LMODELHF"> F  </i>
   <i type="logical" name="LFOCKACE"> F  </i>
   <i name="ENCUT4O">     -1.00000000</i>
   <i type="int" name="EXXOEP">     0</i>
   <i type="int" name="FOURORBIT">     0</i>
   <i name="AEXX">      0.00000000</i>
   <i name="HFALPHA">      0.00000000</i>
   <i name="MCALPHA">      0.00000000</i>
   <i name="ALDAX">      1.00000000</i>
   <i name="AGGAX">      1.00000000</i>
   <i name="AMGGAX">      1.00000000</i>
   <i name="ALDAC">      1.00000000</i>
   <i name="AGGAC">      1.00000000</i>
   <i name="AMGGAC">      1.00000000</i>
   <i type="int" name="NKREDX">     1</i>
   <i type="int" name="NKREDY">     1</i>
   <i type="int" name="NKREDZ">     1</i>
   <i type="logical" name="SHIFTRED"> F  </i>
   <i type="logical" name="ODDONLY"> F  </i>
   <i type="logical" name="EVENONLY"> F  </i>
   <i type="int" name="LMAXFOCK">     0</i>
   <i type="int" name="NMAXFOCKAE">     0</i>
   <i type="logical" name="LFOCKAEDFT"> F  </i>
   <i name="HFSCREEN">      0.00000000</i>
   <i name="HFSCREENC">      0.00000000</i>
   <i type="int" name="NBANDSGWLOW">     0</i>
  </separator>
  <separator name="vdW DFT" >
   <i type="logical" name="LUSE_VDW"> F  </i>
   <i type="int" name="IVDW_NL">    -1</i>
   <i type="logical" name="LSPIN_VDW"> F  </i>
   <i name="ZAB_VDW">     -0.84910000</i>
   <i name="GAMMA_VDW">      1.39626340</i>
   <i name="ALPHA_VDW">      0.00000000</i>
   <i name="PARAM1">      0.12340000</i>
   <i name="PARAM2">      1.00000000</i>
   <i name="BPARAM">      6.30000000</i>
   <i name="CPARAM">      0.00930000</i>
  </separator>
  <separator name="model GW" >
   <i type="int" name="MODEL_GW">     0</i>
   <i name="MODEL_EPS0">     13.15499928</i>
   <i name="MODEL_ALPHA">      1.00000000</i>
  </separator>
  <separator name="linear response parameters" >
   <i type="logical" name="LEPSILON"> F  </i>
   <i type="logical" name="LRPA"> F  </i>
   <i type="logical" name="LNABLA"> F  </i>
   <i type="logical" name="LVEL"> F  </i>
   <i name="CSHIFT">      0.10000000</i>
   <i name="OMEGAMAX">     -1.00000000</i>
   <i name="DEG_THRESHOLD">      0.00200000</i>
   <i name="RTIME">     -0.10000000</i>
   <i name="WPLASMAI">      0.00000000</i>
   <v name="DFIELD">      0.00000000      0.00000000      0.00000000</v>
   <v name="WPLASMA">      0.00000000      0.00000000      0.00000000      0.00000000      0.00000000      0.00000000      0.00000000      0.00000000      0.00000000</v>
  </separator>
  <separator name="orbital magnetization" >
   <i type="logical" name="NUCIND"> F  </i>
   <v name="MAGPOS">      0.00000000      0.00000000      0.00000000</v>
   <i type="logical" name="LNICSALL"> T  </i>
   <i type="logical" name="ORBITALMAG"> F  </i>
   <i type="logical" name="LMAGBLOCH"> F  </i>
   <i type="logical" name="LCHIMAG"> F  </i>
   <i type="logical" name="LGAUGE"> T  </i>
   <i type="int" name="MAGATOM">     0</i>
   <v name="MAGDIPOL">      0.00000000      0.00000000      0.00000000</v>
   <v name="AVECCONST">      0.00000000      0.00000000      0.00000000</v>
  </separator>
  <separator name="response functions" >
   <i type="logical" name="LALL_IN_ONE"> F  </i>
   <i type="int" name="IALL_IN_ONE">    -1</i>
   <i type="int" name="NBANDS_WAVE">    -1</i>
   <i type="logical" name="LFINITE_TEMPERATURE"> F  </i>
   <i type="logical" name="LADDER"> F  </i>
   <i type="logical" name="LRPAFORCE"> F  </i>
   <i type="logical" name="LFXC"> F  </i>
   <i type="logical" name="LHARTREE"> T  </i>
   <i type="int" name="IBSE">     0</i>
   <v type="int" name="KPOINT">    -1     0     0     0</v>
   <i type="logical" name="LTCTC"> F  </i>
   <i type="logical" name="LTCTE"> F  </i>
   <i type="logical" name="LTETE"> F  </i>
   <i type="logical" name="LTRIPLET"> F  </i>
   <i type="logical" name="LFXCEPS"> F  </i>
   <i type="logical" name="LFXHEG"> F  </i>
   <i type="int" name="NATURALO">     2</i>
   <i type="logical" name="LHOLEGF"> F  </i>
   <i type="logical" name="L2ORDER"> F  </i>
   <i type="logical" name="LDMP1"> F  </i>
   <i type="logical" name="LMP2LT"> F  </i>
   <i type="logical" name="LSMP2LT"> F  </i>
   <i type="logical" name="LGWLF"> F  </i>
   <i name="ENCUTGW">     -1.60000002</i>
   <i name="ENCUTGWSOFT">     -1.60000002</i>
   <i name="ENCUTLF">     -1.00000000</i>
   <i type="logical" name="ESF_SPLINES"> F  </i>
   <i name="ESF_CONV">      0.01000000</i>
   <i type="int" name="ESF_NINTER">    15</i>
   <i type="int" name="LMAXMP2">    -1</i>
   <i name="SCISSOR">      0.00000000</i>
   <i type="int" name="NOMEGA">     0</i>
   <i type="int" name="NOMEGAR">     0</i>
   <i type="int" name="NBANDSGW">    -1</i>
   <i type="int" name="NBANDSO">    -1</i>
   <i type="int" name="NBANDSV">    -1</i>
   <i type="int" name="NELMGW">     1</i>
   <i type="int" name="NELMHF">     1</i>
   <i type="int" name="DIM">     3</i>
   <i type="int" name="IESPILON">     4</i>
   <i type="int" name="ANTIRES">     0</i>
   <i name="OMEGAMAX">    -30.00000000</i>
   <i name="OMEGAMIN">    -30.00000000</i>
   <i name="OMEGATL">   -200.00000000</i>
   <i type="int" name="OMEGAGRID">     0</i>
   <i name="CSHIFT">     -0.10000000</i>
   <i type="logical" name="LSELFENERGY"> F  </i>
   <i type="logical" name="LSPECTRAL"> F  </i>
   <i type="logical" name="LSPECTRALGW"> F  </i>
   <i type="logical" name="LSINGLES"> F  </i>
   <i type="logical" name="LFERMIGW"> F  </i>
   <i type="logical" name="ODDONLYGW"> F  </i>
   <i type="logical" name="EVENONLYGW"> F  </i>
   <i type="int" name="NKREDLFX">     1</i>
   <i type="int" name="NKREDLFY">     1</i>
   <i type="int" name="NKREDLFZ">     1</i>
   <i type="int" name="MAXMEM">  2800</i>
   <i type="int" name="TELESCOPE">     0</i>
   <i type="int" name="NTAUPAR">    -1</i>
   <i type="int" name="NOMEGAPAR">    -1</i>
   <i name="DAMP_NEWTON">      0.80000001</i>
   <i name="LAMBDA">      1.00000000</i>
  </separator>
  <separator name="External order field" >
   <i name="OFIELD_KAPPA">      0.00000000</i>
   <v name="OFIELD_K">      0.00000000      0.00000000      0.00000000</v>
   <i name="OFIELD_Q6_NEAR">      0.00000000</i>
   <i name="OFIELD_Q6_FAR">      0.00000000</i>
   <i name="OFIELD_A">      0.00000000</i>
  </separator>
  <separator name="optional k-points parameters" >
   <i type="int" name="KPOINTS_OPT_MODE">     1</i>
   <i type="logical" name="LKPOINTS_OPT"> F  </i>
  </separator>
 </parameters>
 <atominfo>
  <atoms>     128 </atoms>
  <types>       2 </types>
  <array name="atoms" >
   <dimension dim="1">ion</dimension>
   <field type="string">element</field>
   <field type="int">atomtype</field>
   <set>
    <rc><c>Si</c><c>   1</c></rc>
    <rc><c>Si</c><c>   1</c></rc>
    <rc><c>Si</c><c>   1</c></rc>
    <rc><c>Si</c><c>   1</c></rc>
    <rc><c>Si</c><c>   1</c></rc>
    <rc><c>Si</c><c>   1</c></rc>
    <rc><c>Si</c><c>   1</c></rc>
    <rc><c>Si</c><c>   1</c></rc>
    <rc><c>Si</c><c>   1</c></rc>
    <rc><c>Si</c><c>   1</c></rc>
    <rc><c>Si</c><c>   1</c></rc>
    <rc><c>Si</c><c>   1</c></rc>
    <rc><c>Si</c><c>   1</c></rc>
    <rc><c>Si</c><c>   1</c></rc>
    <rc><c>Si</c><c>   1</c></rc>
    <rc><c>Si</c><c>   1</c></rc>
    <rc><c>Si</c><c>   1</c></rc>
    <rc><c>Si</c><c>   1</c></rc>
    <rc><c>Si</c><c>   1</c></rc>
    <rc><c>Si</c><c>   1</c></rc>
    <rc><c>Si</c><c>   1</c></rc>
    <rc><c>Si</c><c>   1</c></rc>
    <rc><c>Si</c><c>   1</c></rc>
    <rc><c>Si</c><c>   1</c></rc>
    <rc><c>Si</c><c>   1</c></rc>
    <rc><c>Si</c><c>   1</c></rc>
    <rc><c>Si</c><c>   1</c></rc>
    <rc><c>Si</c><c>   1</c></rc>
    <rc><c>Si</c><c>   1</c></rc>
    <rc><c>Si</c><c>   1</c></rc>
    <rc><c>Si</c><c>   1</c></rc>
    <rc><c>Si</c><c>   1</c></rc>
    <rc><c>Si</c><c>   1</c></rc>
    <rc><c>Si</c><c>   1</c></rc>
    <rc><c>Si</c><c>   1</c></rc>
    <rc><c>Si</c><c>   1</c></rc>
    <rc><c>Si</c><c>   1</c></rc>
    <rc><c>Si</c><c>   1</c></rc>
    <rc><c>Si</c><c>   1</c></rc>
    <rc><c>Si</c><c>   1</c></rc>
    <rc><c>Si</c><c>   1</c></rc>
    <rc><c>Si</c><c>   1</c></rc>
    <rc><c>Si</c><c>   1</c></rc>
    <rc><c>Si</c><c>   1</c></rc>
    <rc><c>Si</c><c>   1</c></rc>
    <rc><c>Si</c><c>   1</c></rc>
    <rc><c>Si</c><c>   1</c></rc>
    <rc><c>Si</c><c>   1</c></rc>
    <rc><c>Si</c><c>   1</c></rc>
    <rc><c>Si</c><c>   1</c></rc>
    <rc><c>Si</c><c>   1</c></rc>
    <rc><c>Si</c><c>   1</c></rc>
    <rc><c>Si</c><c>   1</c></rc>
    <rc><c>Si</c><c>   1</c></rc>
    <rc><c>Si</c><c>   1</c></rc>
    <rc><c>Si</c><c>   1</c></rc>
    <rc><c>Si</c><c>   1</c></rc>
    <rc><c>Si</c><c>   1</c></rc>
    <rc><c>Si</c><c>   1</c></rc>
    <rc><c>Si</c><c>   1</c></rc>
    <rc><c>Si</c><c>   1</c></rc>
    <rc><c>Si</c><c>   1</c></rc>
    <rc><c>Si</c><c>   1</c></rc>
    <rc><c>Si</c><c>   1</c></rc>
    <rc><c>Ge</c><c>   2</c></rc>
    <rc><c>Ge</c><c>   2</c></rc>
    <rc><c>Ge</c><c>   2</c></rc>
    <rc><c>Ge</c><c>   2</c></rc>
    <rc><c>Ge</c><c>   2</c></rc>
    <rc><c>Ge</c><c>   2</c></rc>
    <rc><c>Ge</c><c>   2</c></rc>
    <rc><c>Ge</c><c>   2</c></rc>
    <rc><c>Ge</c><c>   2</c></rc>
    <rc><c>Ge</c><c>   2</c></rc>
    <rc><c>Ge</c><c>   2</c></rc>
    <rc><c>Ge</c><c>   2</c></rc>
    <rc><c>Ge</c><c>   2</c></rc>
    <rc><c>Ge</c><c>   2</c></rc>
    <rc><c>Ge</c><c>   2</c></rc>
    <rc><c>Ge</c><c>   2</c></rc>
    <rc><c>Ge</c><c>   2</c></rc>
    <rc><c>Ge</c><c>   2</c></rc>
    <rc><c>Ge</c><c>   2</c></rc>
    <rc><c>Ge</c><c>   2</c></rc>
    <rc><c>Ge</c><c>   2</c></rc>
    <rc><c>Ge</c><c>   2</c></rc>
    <rc><c>Ge</c><c>   2</c></rc>
    <rc><c>Ge</c><c>   2</c></rc>
    <rc><c>Ge</c><c>   2</c></rc>
    <rc><c>Ge</c><c>   2</c></rc>
    <rc><c>Ge</c><c>   2</c></rc>
    <rc><c>Ge</c><c>   2</c></rc>
    <rc><c>Ge</c><c>   2</c></rc>
    <rc><c>Ge</c><c>   2</c></rc>
    <rc><c>Ge</c><c>   2</c></rc>
    <rc><c>Ge</c><c>   2</c></rc>
    <rc><c>Ge</c><c>   2</c></rc>
    <rc><c>Ge</c><c>   2</c></rc>
    <rc><c>Ge</c><c>   2</c></rc>
    <rc><c>Ge</c><c>   2</c></rc>
    <rc><c>Ge</c><c>   2</c></rc>
    <rc><c>Ge</c><c>   2</c></rc>
    <rc><c>Ge</c><c>   2</c></rc>
    <rc><c>Ge</c><c>   2</c></rc>
    <rc><c>Ge</c><c>   2</c></rc>
    <rc><c>Ge</c><c>   2</c></rc>
    <rc><c>Ge</c><c>   2</c></rc>
    <rc><c>Ge</c><c>   2</c></rc>
    <rc><c>Ge</c><c>   2</c></rc>
    <rc><c>Ge</c><c>   2</c></rc>
    <rc><c>Ge</c><c>   2</c></rc>
    <rc><c>Ge</c><c>   2</c></rc>
    <rc><c>Ge</c><c>   2</c></rc>
    <rc><c>Ge</c><c>   2</c></rc>
    <rc><c>Ge</c><c>   2</c></rc>
    <rc><c>Ge</c><c>   2</c></rc>
    <rc><c>Ge</c><c>   2</c></rc>
    <rc><c>Ge</c><c>   2</c></rc>
    <rc><c>Ge</c><c>   2</c></rc>
    <rc><c>Ge</c><c>   2</c></rc>
    <rc><c>Ge</c><c>   2</c></rc>
    <rc><c>Ge</c><c>   2</c></rc>
    <rc><c>Ge</c><c>   2</c></rc>
    <rc><c>Ge</c><c>   2</c></rc>
    <rc><c>Ge</c><c>   2</c></rc>
    <rc><c>Ge</c><c>   2</c></rc>
    <rc><c>Ge</c><c>   2</c></rc>
    <rc><c>Ge</c><c>   2</c></rc>
   </set>
  </array>
  <array name="atomtypes" >
   <dimension dim="1">type</dimension>
   <field type="int">atomspertype</field>
   <field type="string">element</field>
   <field>mass</field>
   <field>valence</field>
   <field type="string">pseudopotential</field>
   <set>
    <rc><c>  64</c><c>Si</c><c>     28.08500000</c><c>      4.00000000</c><c>  PAW_PBE Si 05Jan2001                  </c></rc>
    <rc><c>  64</c><c>Ge</c><c>     72.61000000</c><c>     14.00000000</c><c>  PAW_PBE Ge_d 03Jul2007                </c></rc>
   </set>
  </array>
 </atominfo>
 <structure name="initialpos" >
  <crystal>
   <varray name="basis" >
    <v>      -0.00000000      11.19540607      11.19540607 </v>
    <v>      11.19540607      -0.00000000      11.19540607 </v>
    <v>      11.19540607      11.19540607       0.00000000 </v>
   </varray>
   <i name="volume">   2806.39984618 </i>
   <varray name="rec_basis" >
    <v>      -0.04466118       0.04466118       0.04466118 </v>
    <v>       0.04466118      -0.04466118       0.04466118 </v>
    <v>       0.04466118       0.04466118      -0.04466118 </v>
   </varray>
  </crystal>
  <varray name="positions" >
   <v>       0.00000000       0.00000000       0.00000000 </v>
   <v>       0.25000000       0.00000000       0.00000000 </v>
   <v>       0.50000000       0.00000000       0.00000000 </v>
   <v>       0.75000000       0.00000000       0.00000000 </v>
   <v>       0.00000000       0.25000000       0.00000000 </v>
   <v>       0.25000000       0.25000000       0.00000000 </v>
   <v>       0.50000000       0.25000000       0.00000000 </v>
   <v>       0.75000000       0.25000000       0.00000000 </v>
   <v>       0.00000000       0.50000000       0.00000000 </v>
   <v>       0.25000000       0.50000000       0.00000000 </v>
   <v>       0.50000000       0.50000000       0.00000000 </v>
   <v>       0.75000000       0.50000000       0.00000000 </v>
   <v>       0.00000000       0.75000000       0.00000000 </v>
   <v>       0.25000000       0.75000000       0.00000000 </v>
   <v>       0.50000000       0.75000000       0.00000000 </v>
   <v>       0.75000000       0.75000000       0.00000000 </v>
   <v>       0.00000000       0.00000000       0.25000000 </v>
   <v>       0.25000000       0.00000000       0.25000000 </v>
   <v>       0.50000000       0.00000000       0.25000000 </v>
   <v>       0.75000000       0.00000000       0.25000000 </v>
   <v>       0.00000000       0.25000000       0.25000000 </v>
   <v>       0.25000000       0.25000000       0.25000000 </v>
   <v>       0.50000000       0.25000000       0.25000000 </v>
   <v>       0.75000000       0.25000000       0.25000000 </v>
   <v>       0.00000000       0.50000000       0.25000000 </v>
   <v>       0.25000000       0.50000000       0.25000000 </v>
   <v>       0.50000000       0.50000000       0.25000000 </v>
   <v>       0.75000000       0.50000000       0.25000000 </v>
   <v>       0.00000000       0.75000000       0.25000000 </v>
   <v>       0.25000000       0.75000000       0.25000000 </v>
   <v>       0.50000000       0.75000000       0.25000000 </v>
   <v>       0.75000000       0.75000000       0.25000000 </v>
   <v>       0.00000000       0.00000000       0.50000000 </v>
   <v>       0.25000000       0.00000000       0.50000000 </v>
   <v>       0.50000000       0.00000000       0.50000000 </v>
   <v>       0.75000000       0.00000000       0.50000000 </v>
   <v>       0.00000000       0.25000000       0.50000000 </v>
   <v>       0.25000000       0.25000000       0.50000000 </v>
   <v>       0.50000000       0.25000000       0.50000000 </v>
   <v>       0.75000000       0.25000000       0.50000000 </v>
   <v>       0.00000000       0.50000000       0.50000000 </v>
   <v>       0.25000000       0.50000000       0.50000000 </v>
   <v>       0.50000000       0.50000000       0.50000000 </v>
   <v>       0.75000000       0.50000000       0.50000000 </v>
   <v>       0.00000000       0.75000000       0.50000000 </v>
   <v>       0.25000000       0.75000000       0.50000000 </v>
   <v>       0.50000000       0.75000000       0.50000000 </v>
   <v>       0.75000000       0.75000000       0.50000000 </v>
   <v>       0.00000000       0.00000000       0.75000000 </v>
   <v>       0.25000000       0.00000000       0.75000000 </v>
   <v>       0.50000000       0.00000000       0.75000000 </v>
   <v>       0.75000000       0.00000000       0.75000000 </v>
   <v>       0.00000000       0.25000000       0.75000000 </v>
   <v>       0.25000000       0.25000000       0.75000000 </v>
   <v>       0.50000000       0.25000000       0.75000000 </v>
   <v>       0.75000000       0.25000000       0.75000000 </v>
   <v>       0.00000000       0.50000000       0.75000000 </v>
   <v>       0.25000000       0.50000000       0.75000000 </v>
   <v>       0.50000000       0.50000000       0.75000000 </v>
   <v>       0.75000000       0.50000000       0.75000000 </v>
   <v>       0.00000000       0.75000000       0.75000000 </v>
   <v>       0.25000000       0.75000000       0.75000000 </v>
   <v>       0.50000000       0.75000000       0.75000000 </v>
   <v>       0.75000000       0.75000000       0.75000000 </v>
   <v>       0.18813160       0.18750000       0.18750000 </v>
   <v>       0.43750000       0.18750000       0.18750000 </v>
   <v>       0.68750000       0.18750000       0.18750000 </v>
   <v>       0.93750000       0.18750000       0.18750000 </v>
   <v>       0.18750000       0.43750000       0.18750000 </v>
   <v>       0.43750000       0.43750000       0.18750000 </v>
   <v>       0.68750000       0.43750000       0.18750000 </v>
   <v>       0.93750000       0.43750000       0.18750000 </v>
   <v>       0.18750000       0.68750000       0.18750000 </v>
   <v>       0.43750000       0.68750000       0.18750000 </v>
   <v>       0.68750000       0.68750000       0.18750000 </v>
   <v>       0.93750000       0.68750000       0.18750000 </v>
   <v>       0.18750000       0.93750000       0.18750000 </v>
   <v>       0.43750000       0.93750000       0.18750000 </v>
   <v>       0.68750000       0.93750000       0.18750000 </v>
   <v>       0.93750000       0.93750000       0.18750000 </v>
   <v>       0.18750000       0.18750000       0.43750000 </v>
   <v>       0.43750000       0.18750000       0.43750000 </v>
   <v>       0.68750000       0.18750000       0.43750000 </v>
   <v>       0.93750000       0.18750000       0.43750000 </v>
   <v>       0.18750000       0.43750000       0.43750000 </v>
   <v>       0.43750000       0.43750000       0.43750000 </v>
   <v>       0.68750000       0.43750000       0.43750000 </v>
   <v>       0.93750000       0.43750000       0.43750000 </v>
   <v>       0.18750000       0.68750000       0.43750000 </v>
   <v>       0.43750000       0.68750000       0.43750000 </v>
   <v>       0.68750000       0.68750000       0.43750000 </v>
   <v>       0.93750000       0.68750000       0.43750000 </v>
   <v>       0.18750000       0.93750000       0.43750000 </v>
   <v>       0.43750000       0.93750000       0.43750000 </v>
   <v>       0.68750000       0.93750000       0.43750000 </v>
   <v>       0.93750000       0.93750000       0.43750000 </v>
   <v>       0.18750000       0.18750000       0.68750000 </v>
   <v>       0.43750000       0.18750000       0.68750000 </v>
   <v>       0.68750000       0.18750000       0.68750000 </v>
   <v>       0.93750000       0.18750000       0.68750000 </v>
   <v>       0.18750000       0.43750000       0.68750000 </v>
   <v>       0.43750000       0.43750000       0.68750000 </v>
   <v>       0.68750000       0.43750000       0.68750000 </v>
   <v>       0.93750000       0.43750000       0.68750000 </v>
   <v>       0.18750000       0.68750000       0.68750000 </v>
   <v>       0.43750000       0.68750000       0.68750000 </v>
   <v>       0.68750000       0.68750000       0.68750000 </v>
   <v>       0.93750000       0.68750000       0.68750000 </v>
   <v>       0.18750000       0.93750000       0.68750000 </v>
   <v>       0.43750000       0.93750000       0.68750000 </v>
   <v>       0.68750000       0.93750000       0.68750000 </v>
   <v>       0.93750000       0.93750000       0.68750000 </v>
   <v>       0.18750000       0.18750000       0.93750000 </v>
   <v>       0.43750000       0.18750000       0.93750000 </v>
   <v>       0.68750000       0.18750000       0.93750000 </v>
   <v>       0.93750000       0.18750000       0.93750000 </v>
   <v>       0.18750000       0.43750000       0.93750000 </v>
   <v>       0.43750000       0.43750000       0.93750000 </v>
   <v>       0.68750000       0.43750000       0.93750000 </v>
   <v>       0.93750000       0.43750000       0.93750000 </v>
   <v>       0.18750000       0.68750000       0.93750000 </v>
   <v>       0.43750000       0.68750000       0.93750000 </v>
   <v>       0.68750000       0.68750000       0.93750000 </v>
   <v>       0.93750000       0.68750000       0.93750000 </v>
   <v>       0.18750000       0.93750000       0.93750000 </v>
   <v>       0.43750000       0.93750000       0.93750000 </v>
   <v>       0.68750000       0.93750000       0.93750000 </v>
   <v>       0.93750000       0.93750000       0.93750000 </v>
  </varray>
 </structure>
 <calculation>
  <scstep>
   <time name="dav">   56.58   56.86</time>
   <time name="total">   56.83   57.12</time>
   <energy>
    <i name="alphaZ">   2970.02515869 </i>
    <i name="ewald"> -87406.15972304 </i>
    <i name="hartreedc"> -53633.28046070 </i>
    <i name="XCdc">   4074.08040563 </i>
    <i name="pawpsdc"> 123183.33653208 </i>
    <i name="pawaedc">-149894.99457999 </i>
    <i name="eentropy">     -0.00107376 </i>
    <i name="bandstr">   8591.25081842 </i>
    <i name="atom"> 172755.47663999 </i>
    <i name="e_fr_energy">  20639.73371731 </i>
    <i name="e_wo_entrp">  20639.73479107 </i>
    <i name="e_0_energy">  20639.73425419 </i>
   </energy>
  </scstep>
  <scstep>
   <time name="dav">   50.72   50.94</time>
   <time name="total">   50.72   50.94</time>
   <energy>
    <i name="e_fr_energy">   4059.00667378 </i>
    <i name="e_wo_entrp">   4059.00809487 </i>
    <i name="e_0_energy">   4059.00738433 </i>
   </energy>
  </scstep>
  <scstep>
   <time name="dav">   51.33   51.56</time>
   <time name="total">   51.34   51.56</time>
   <energy>
    <i name="e_fr_energy">    101.56844929 </i>
    <i name="e_wo_entrp">    101.56934653 </i>
    <i name="e_0_energy">    101.56889791 </i>
   </energy>
  </scstep>
  <scstep>
   <time name="dav">   58.39   58.64</time>
   <time name="total">   58.39   58.64</time>
   <energy>
    <i name="e_fr_energy">   -590.05728472 </i>
    <i name="e_wo_entrp">   -590.05728472 </i>
    <i name="e_0_energy">   -590.05728472 </i>
   </energy>
  </scstep>
  <scstep>
   <time name="dav">   57.96   58.21</time>
   <time name="total">   59.69   59.95</time>
   <energy>
    <i name="e_fr_energy">   -638.45844585 </i>
    <i name="e_wo_entrp">   -638.45844585 </i>
    <i name="e_0_energy">   -638.45844585 </i>
   </energy>
  </scstep>
  <scstep>
   <time name="dav">   63.21   63.48</time>
   <time name="total">   65.17   65.45</time>
   <energy>
    <i name="e_fr_energy">   -635.45924543 </i>
    <i name="e_wo_entrp">   -635.45924543 </i>
    <i name="e_0_energy">   -635.45924543 </i>
   </energy>
  </scstep>
  <scstep>
   <time name="dav">   61.86   62.15</time>
   <time name="total">   63.82   64.12</time>
   <energy>
    <i name="e_fr_energy">   -633.05801885 </i>
    <i name="e_wo_entrp">   -633.05801885 </i>
    <i name="e_0_energy">   -633.05801885 </i>
   </energy>
  </scstep>
  <scstep>
   <time name="dav">   64.68   64.95</time>
   <time name="total">   66.64   66.93</time>
   <energy>
    <i name="e_fr_energy">   -633.16328879 </i>
    <i name="e_wo_entrp">   -633.16328879 </i>
    <i name="e_0_energy">   -633.16328879 </i>
   </energy>
  </scstep>
  <scstep>
   <time name="dav">   61.77   62.03</time>
   <time name="total">   63.75   64.02</time>
   <energy>
    <i name="e_fr_energy">   -633.19375302 </i>
    <i name="e_wo_entrp">   -633.19375302 </i>
    <i name="e_0_energy">   -633.19375302 </i>
   </energy>
  </scstep>
  <scstep>
   <time name="dav">   58.72   58.96</time>
   <time name="total">   61.04   61.29</time>
   <energy>
    <i name="e_fr_energy">   -633.20114379 </i>
    <i name="e_wo_entrp">   -633.20114379 </i>
    <i name="e_0_energy">   -633.20114379 </i>
   </energy>
  </scstep>
  <scstep>
   <time name="dav">   59.48   59.73</time>
   <time name="total">   61.51   61.77</time>
   <energy>
    <i name="e_fr_energy">   -633.20257500 </i>
    <i name="e_wo_entrp">   -633.20257500 </i>
    <i name="e_0_energy">   -633.20257500 </i>
   </energy>
  </scstep>
  <scstep>
   <time name="dav">   63.22   63.48</time>
   <time name="total">   65.21   65.48</time>
   <energy>
    <i name="e_fr_energy">   -633.20273810 </i>
    <i name="e_wo_entrp">   -633.20273810 </i>
    <i name="e_0_energy">   -633.20273810 </i>
   </energy>
  </scstep>
  <scstep>
   <time name="dav">   62.87   63.16</time>
   <time name="total">   64.87   65.17</time>
   <energy>
    <i name="e_fr_energy">   -633.20279455 </i>
    <i name="e_wo_entrp">   -633.20279455 </i>
    <i name="e_0_energy">   -633.20279455 </i>
   </energy>
  </scstep>
  <scstep>
   <time name="dav">   65.43   65.70</time>
   <time name="total">   67.42   67.71</time>
   <energy>
    <i name="e_fr_energy">   -633.20280332 </i>
    <i name="e_wo_entrp">   -633.20280332 </i>
    <i name="e_0_energy">   -633.20280332 </i>
   </energy>
  </scstep>
  <scstep>
   <time name="dav">   65.13   65.41</time>
   <time name="total">   67.12   67.40</time>
   <energy>
    <i name="e_fr_energy">   -633.20280575 </i>
    <i name="e_wo_entrp">   -633.20280575 </i>
    <i name="e_0_energy">   -633.20280575 </i>
   </energy>
  </scstep>
  <scstep>
   <time name="dav">   60.10   60.35</time>
   <time name="total">   62.12   62.38</time>
   <energy>
    <i name="e_fr_energy">   -633.20280588 </i>
    <i name="e_wo_entrp">   -633.20280588 </i>
    <i name="e_0_energy">   -633.20280588 </i>
   </energy>
  </scstep>
  <scstep>
   <time name="dav">   52.90   53.12</time>
   <time name="total">   54.92   55.16</time>
   <energy>
    <i name="e_fr_energy">   -633.20280576 </i>
    <i name="e_wo_entrp">   -633.20280576 </i>
    <i name="e_0_energy">   -633.20280576 </i>
   </energy>
  </scstep>
  <scstep>
   <time name="dav">   78.99   79.35</time>
   <time name="total">   81.00   81.37</time>
   <energy>
    <i name="e_fr_energy">   -633.20280574 </i>
    <i name="e_wo_entrp">   -633.20280574 </i>
    <i name="e_0_energy">   -633.20280574 </i>
   </energy>
  </scstep>
  <scstep>
   <time name="dav">   51.60   51.82</time>
   <time name="total">   53.65   53.88</time>
   <energy>
    <i name="e_fr_energy">   -633.20280581 </i>
    <i name="e_wo_entrp">   -633.20280581 </i>
    <i name="e_0_energy">   -633.20280581 </i>
   </energy>
  </scstep>
  <scstep>
   <time name="dav">   40.41   40.58</time>
   <time name="total">   40.66   40.83</time>
   <energy>
    <i name="alphaZ">   2970.02515869 </i>
    <i name="ewald"> -87406.15972304 </i>
    <i name="hartreedc"> -53752.74649938 </i>
    <i name="XCdc">   4081.03421918 </i>
    <i name="pawpsdc"> 169351.27999365 </i>
    <i name="pawaedc">-196259.09096883 </i>
    <i name="eentropy">     -0.00000000 </i>
    <i name="bandstr"> -12373.02162608 </i>
    <i name="atom"> 172755.47663999 </i>
    <i name="e_fr_energy">   -633.20280582 </i>
    <i name="e_wo_entrp">   -633.20280582 </i>
    <i name="e_0_energy">   -633.20280582 </i>
   </energy>
  </scstep>
  <structure>
   <crystal>
    <varray name="basis" >
     <v>      -0.00000000      11.19540607      11.19540607 </v>
     <v>      11.19540607      -0.00000000      11.19540607 </v>
     <v>      11.19540607      11.19540607       0.00000000 </v>
    </varray>
    <i name="volume">   2806.39984618 </i>
    <varray name="rec_basis" >
     <v>      -0.04466118       0.04466118       0.04466118 </v>
     <v>       0.04466118      -0.04466118       0.04466118 </v>
     <v>       0.04466118       0.04466118      -0.04466118 </v>
    </varray>
   </crystal>
   <varray name="positions" >
    <v>       0.00000000       0.00000000       0.00000000 </v>
    <v>       0.25000000       0.00000000       0.00000000 </v>
    <v>       0.50000000       0.00000000       0.00000000 </v>
    <v>       0.75000000       0.00000000       0.00000000 </v>
    <v>       0.00000000       0.25000000       0.00000000 </v>
    <v>       0.25000000       0.25000000       0.00000000 </v>
    <v>       0.50000000       0.25000000       0.00000000 </v>
    <v>       0.75000000       0.25000000       0.00000000 </v>
    <v>       0.00000000       0.50000000       0.00000000 </v>
    <v>       0.25000000       0.50000000       0.00000000 </v>
    <v>       0.50000000       0.50000000       0.00000000 </v>
    <v>       0.75000000       0.50000000       0.00000000 </v>
    <v>       0.00000000       0.75000000       0.00000000 </v>
    <v>       0.25000000       0.75000000       0.00000000 </v>
    <v>       0.50000000       0.75000000       0.00000000 </v>
    <v>       0.75000000       0.75000000       0.00000000 </v>
    <v>       0.00000000       0.00000000       0.25000000 </v>
    <v>       0.25000000       0.00000000       0.25000000 </v>
    <v>       0.50000000       0.00000000       0.25000000 </v>
    <v>       0.75000000       0.00000000       0.25000000 </v>
    <v>       0.00000000       0.25000000       0.25000000 </v>
    <v>       0.25000000       0.25000000       0.25000000 </v>
    <v>       0.50000000       0.25000000       0.25000000 </v>
    <v>       0.75000000       0.25000000       0.25000000 </v>
    <v>       0.00000000       0.50000000       0.25000000 </v>
    <v>       0.25000000       0.50000000       0.25000000 </v>
    <v>       0.50000000       0.50000000       0.25000000 </v>
    <v>       0.75000000       0.50000000       0.25000000 </v>
    <v>       0.00000000       0.75000000       0.25000000 </v>
    <v>       0.25000000       0.75000000       0.25000000 </v>
    <v>       0.50000000       0.75000000       0.25000000 </v>
    <v>       0.75000000       0.75000000       0.25000000 </v>
    <v>       0.00000000       0.00000000       0.50000000 </v>
    <v>       0.25000000       0.00000000       0.50000000 </v>
    <v>       0.50000000       0.00000000       0.50000000 </v>
    <v>       0.75000000       0.00000000       0.50000000 </v>
    <v>       0.00000000       0.25000000       0.50000000 </v>
    <v>       0.25000000       0.25000000       0.50000000 </v>
    <v>       0.50000000       0.25000000       0.50000000 </v>
    <v>       0.75000000       0.25000000       0.50000000 </v>
    <v>       0.00000000       0.50000000       0.50000000 </v>
    <v>       0.25000000       0.50000000       0.50000000 </v>
    <v>       0.50000000       0.50000000       0.50000000 </v>
    <v>       0.75000000       0.50000000       0.50000000 </v>
    <v>       0.00000000       0.75000000       0.50000000 </v>
    <v>       0.25000000       0.75000000       0.50000000 </v>
    <v>       0.50000000       0.75000000       0.50000000 </v>
    <v>       0.75000000       0.75000000       0.50000000 </v>
    <v>       0.00000000       0.00000000       0.75000000 </v>
    <v>       0.25000000       0.00000000       0.75000000 </v>
    <v>       0.50000000       0.00000000       0.75000000 </v>
    <v>       0.75000000       0.00000000       0.75000000 </v>
    <v>       0.00000000       0.25000000       0.75000000 </v>
    <v>       0.25000000       0.25000000       0.75000000 </v>
    <v>       0.50000000       0.25000000       0.75000000 </v>
    <v>       0.75000000       0.25000000       0.75000000 </v>
    <v>       0.00000000       0.50000000       0.75000000 </v>
    <v>       0.25000000       0.50000000       0.75000000 </v>
    <v>       0.50000000       0.50000000       0.75000000 </v>
    <v>       0.75000000       0.50000000       0.75000000 </v>
    <v>       0.00000000       0.75000000       0.75000000 </v>
    <v>       0.25000000       0.75000000       0.75000000 </v>
    <v>       0.50000000       0.75000000       0.75000000 </v>
    <v>       0.75000000       0.75000000       0.75000000 </v>
    <v>       0.18813160       0.18750000       0.18750000 </v>
    <v>       0.43750000       0.18750000       0.18750000 </v>
    <v>       0.68750000       0.18750000       0.18750000 </v>
    <v>       0.93750000       0.18750000       0.18750000 </v>
    <v>       0.18750000       0.43750000       0.18750000 </v>
    <v>       0.43750000       0.43750000       0.18750000 </v>
    <v>       0.68750000       0.43750000       0.18750000 </v>
    <v>       0.93750000       0.43750000       0.18750000 </v>
    <v>       0.18750000       0.68750000       0.18750000 </v>
    <v>       0.43750000       0.68750000       0.18750000 </v>
    <v>       0.68750000       0.68750000       0.18750000 </v>
    <v>       0.93750000       0.68750000       0.18750000 </v>
    <v>       0.18750000       0.93750000       0.18750000 </v>
    <v>       0.43750000       0.93750000       0.18750000 </v>
    <v>       0.68750000       0.93750000       0.18750000 </v>
    <v>       0.93750000       0.93750000       0.18750000 </v>
    <v>       0.18750000       0.18750000       0.43750000 </v>
    <v>       0.43750000       0.18750000       0.43750000 </v>
    <v>       0.68750000       0.18750000       0.43750000 </v>
    <v>       0.93750000       0.18750000       0.43750000 </v>
    <v>       0.18750000       0.43750000       0.43750000 </v>
    <v>       0.43750000       0.43750000       0.43750000 </v>
    <v>       0.68750000       0.43750000       0.43750000 </v>
    <v>       0.93750000       0.43750000       0.43750000 </v>
    <v>       0.18750000       0.68750000       0.43750000 </v>
    <v>       0.43750000       0.68750000       0.43750000 </v>
    <v>       0.68750000       0.68750000       0.43750000 </v>
    <v>       0.93750000       0.68750000       0.43750000 </v>
    <v>       0.18750000       0.93750000       0.43750000 </v>
    <v>       0.43750000       0.93750000       0.43750000 </v>
    <v>       0.68750000       0.93750000       0.43750000 </v>
    <v>       0.93750000       0.93750000       0.43750000 </v>
    <v>       0.18750000       0.18750000       0.68750000 </v>
    <v>       0.43750000       0.18750000       0.68750000 </v>
    <v>       0.68750000       0.18750000       0.68750000 </v>
    <v>       0.93750000       0.18750000       0.68750000 </v>
    <v>       0.18750000       0.43750000       0.68750000 </v>
    <v>       0.43750000       0.43750000       0.68750000 </v>
    <v>       0.68750000       0.43750000       0.68750000 </v>
    <v>       0.93750000       0.43750000       0.68750000 </v>
    <v>       0.18750000       0.68750000       0.68750000 </v>
    <v>       0.43750000       0.68750000       0.68750000 </v>
    <v>       0.68750000       0.68750000       0.68750000 </v>
    <v>       0.93750000       0.68750000       0.68750000 </v>
    <v>       0.18750000       0.93750000       0.68750000 </v>
    <v>       0.43750000       0.93750000       0.68750000 </v>
    <v>       0.68750000       0.93750000       0.68750000 </v>
    <v>       0.93750000       0.93750000       0.68750000 </v>
    <v>       0.18750000       0.18750000       0.93750000 </v>
    <v>       0.43750000       0.18750000       0.93750000 </v>
    <v>       0.68750000       0.18750000       0.93750000 </v>
    <v>       0.93750000       0.18750000       0.93750000 </v>
    <v>       0.18750000       0.43750000       0.93750000 </v>
    <v>       0.43750000       0.43750000       0.93750000 </v>
    <v>       0.68750000       0.43750000       0.93750000 </v>
    <v>       0.93750000       0.43750000       0.93750000 </v>
    <v>       0.18750000       0.68750000       0.93750000 </v>
    <v>       0.43750000       0.68750000       0.93750000 </v>
    <v>       0.68750000       0.68750000       0.93750000 </v>
    <v>       0.93750000       0.68750000       0.93750000 </v>
    <v>       0.18750000       0.93750000       0.93750000 </v>
    <v>       0.43750000       0.93750000       0.93750000 </v>
    <v>       0.68750000       0.93750000       0.93750000 </v>
    <v>       0.93750000       0.93750000       0.93750000 </v>
   </varray>
  </structure>
  <varray name="forces" >
   <v>       0.00000814      -0.00009171      -0.00009171 </v>
   <v>      -0.00039837       0.00014936       0.00014936 </v>
   <v>       0.00039166       0.00015031       0.00015031 </v>
   <v>      -0.00001220      -0.00009208      -0.00009208 </v>
   <v>       0.00018919      -0.00023571      -0.00041412 </v>
   <v>       0.00010736       0.00667426       0.00652910 </v>
   <v>      -0.00019070      -0.00041551      -0.00023570 </v>
   <v>      -0.00000088      -0.00006774      -0.00007110 </v>
   <v>       0.00055983       0.00015907      -0.00004082 </v>
   <v>      -0.00056782      -0.00003897       0.00015814 </v>
   <v>      -0.00001513      -0.00010035      -0.00003929 </v>
   <v>       0.00001064      -0.00003650      -0.00010020 </v>
   <v>      -0.00000133      -0.00010128      -0.00010156 </v>
   <v>      -0.00024679       0.00003338       0.00017615 </v>
   <v>      -0.00000141      -0.00008769      -0.00008819 </v>
   <v>       0.00024359       0.00017513       0.00003308 </v>
   <v>       0.00018919      -0.00041412      -0.00023571 </v>
   <v>       0.00010736       0.00652910       0.00667426 </v>
   <v>      -0.00019070      -0.00023570      -0.00041551 </v>
   <v>      -0.00000088      -0.00007110      -0.00006774 </v>
   <v>      -0.02637560       0.03312349       0.03312349 </v>
   <v>       0.02754007       0.03398382       0.03398382 </v>
   <v>      -0.00056163       0.00010478       0.00010478 </v>
   <v>       0.00054926       0.00009444       0.00009444 </v>
   <v>      -0.00000399      -0.00059986      -0.00060618 </v>
   <v>      -0.00026334       0.00130421      -0.00017319 </v>
   <v>      -0.00000301      -0.00022904      -0.00022932 </v>
   <v>       0.00025876      -0.00017638       0.00130157 </v>
   <v>       0.00010098      -0.00027659      -0.00017206 </v>
   <v>       0.00026884       0.00186326       0.00035987 </v>
   <v>      -0.00027808       0.00035923       0.00185524 </v>
   <v>      -0.00010488      -0.00017227      -0.00027618 </v>
   <v>       0.00055983      -0.00004082       0.00015907 </v>
   <v>      -0.00056782       0.00015814      -0.00003897 </v>
   <v>      -0.00001513      -0.00003929      -0.00010035 </v>
   <v>       0.00001064      -0.00010020      -0.00003650 </v>
   <v>      -0.00000399      -0.00060618      -0.00059986 </v>
   <v>      -0.00026334      -0.00017319       0.00130421 </v>
   <v>      -0.00000301      -0.00022932      -0.00022904 </v>
   <v>       0.00025876       0.00130157      -0.00017638 </v>
   <v>       0.00002644      -0.00014004      -0.00014004 </v>
   <v>      -0.00037005       0.00013777       0.00013777 </v>
   <v>       0.00036329       0.00013817       0.00013817 </v>
   <v>      -0.00003152      -0.00014004      -0.00014004 </v>
   <v>       0.00003758      -0.00012800      -0.00006692 </v>
   <v>      -0.00000321       0.00008562       0.00008732 </v>
   <v>      -0.00004048      -0.00006674      -0.00012685 </v>
   <v>      -0.00000275      -0.00009254      -0.00009323 </v>
   <v>      -0.00000133      -0.00010156      -0.00010128 </v>
   <v>      -0.00024679       0.00017615       0.00003338 </v>
   <v>      -0.00000141      -0.00008819      -0.00008769 </v>
   <v>       0.00024359       0.00003308       0.00017513 </v>
   <v>       0.00010098      -0.00017206      -0.00027659 </v>
   <v>       0.00026884       0.00035987       0.00186326 </v>
   <v>      -0.00027808       0.00185524       0.00035923 </v>
   <v>      -0.00010488      -0.00027618      -0.00017227 </v>
   <v>       0.00003758      -0.00006692      -0.00012800 </v>
   <v>      -0.00000321       0.00008732       0.00008562 </v>
   <v>      -0.00004048      -0.00012685      -0.00006674 </v>
   <v>      -0.00000275      -0.00009323      -0.00009254 </v>
   <v>       0.00030675       0.00007227       0.00007227 </v>
   <v>      -0.00031305       0.00007359       0.00007359 </v>
   <v>      -0.00001407      -0.00008205      -0.00008205 </v>
   <v>       0.00000802      -0.00008173      -0.00008173 </v>
   <v>      -0.00160379      -0.08046917      -0.08046917 </v>
   <v>       0.00129424       0.00212071       0.00212071 </v>
   <v>       0.00000652       0.00018767       0.00018767 </v>
   <v>      -0.00125738       0.00208743       0.00208743 </v>
   <v>       0.00048640      -0.00216492       0.00035391 </v>
   <v>      -0.00010035       0.00020075       0.00015467 </v>
   <v>       0.00011383       0.00015431       0.00020035 </v>
   <v>      -0.00047515       0.00034113      -0.00217045 </v>
   <v>       0.00020369      -0.00132011      -0.00001206 </v>
   <v>       0.00000673       0.00030766       0.00030679 </v>
   <v>      -0.00019189      -0.00000999      -0.00131765 </v>
   <v>       0.00000593       0.00030776       0.00030753 </v>
   <v>       0.00175571      -0.00344514       0.00162735 </v>
   <v>      -0.00175414       0.00162198      -0.00344203 </v>
   <v>       0.00006941       0.00011309       0.00024170 </v>
   <v>      -0.00005935       0.00024168       0.00011206 </v>
   <v>       0.00048640       0.00035391      -0.00216492 </v>
   <v>      -0.00010035       0.00015467       0.00020075 </v>
   <v>       0.00011383       0.00020035       0.00015431 </v>
   <v>      -0.00047515      -0.00217045       0.00034113 </v>
   <v>       0.00029732      -0.00011472      -0.00011472 </v>
   <v>       0.00000784       0.00007286       0.00007286 </v>
   <v>      -0.00028468      -0.00011544      -0.00011544 </v>
   <v>       0.00000676       0.00015431       0.00015431 </v>
   <v>       0.00032128      -0.00000649      -0.00013721 </v>
   <v>      -0.00030947      -0.00013723      -0.00000871 </v>
   <v>      -0.00000227       0.00007206       0.00010114 </v>
   <v>       0.00001430       0.00010184       0.00007224 </v>
   <v>       0.00000566      -0.00013315      -0.00013142 </v>
   <v>       0.00000604       0.00006359       0.00015328 </v>
   <v>       0.00000643       0.00008025       0.00007998 </v>
   <v>       0.00000670       0.00015485       0.00006174 </v>
   <v>       0.00020369      -0.00001206      -0.00132011 </v>
   <v>       0.00000673       0.00030679       0.00030766 </v>
   <v>      -0.00019189      -0.00131765      -0.00000999 </v>
   <v>       0.00000593       0.00030753       0.00030776 </v>
   <v>       0.00032128      -0.00013721      -0.00000649 </v>
   <v>      -0.00030947      -0.00000871      -0.00013723 </v>
   <v>      -0.00000227       0.00010114       0.00007206 </v>
   <v>       0.00001430       0.00007224       0.00010184 </v>
   <v>       0.00000603      -0.00020979      -0.00020979 </v>
   <v>       0.00001880       0.00007832       0.00007832 </v>
   <v>       0.00000634       0.00008271       0.00008271 </v>
   <v>      -0.00000736       0.00007860       0.00007860 </v>
   <v>       0.00036317      -0.00009569      -0.00004878 </v>
   <v>      -0.00000014       0.00008585       0.00008808 </v>
   <v>       0.00001135       0.00008820       0.00008578 </v>
   <v>      -0.00035181      -0.00004907      -0.00009689 </v>
   <v>       0.00175571       0.00162735      -0.00344514 </v>
   <v>      -0.00175414      -0.00344203       0.00162198 </v>
   <v>       0.00006941       0.00024170       0.00011309 </v>
   <v>      -0.00005935       0.00011206       0.00024168 </v>
   <v>       0.00000566      -0.00013142      -0.00013315 </v>
   <v>       0.00000604       0.00015328       0.00006359 </v>
   <v>       0.00000643       0.00007998       0.00008025 </v>
   <v>       0.00000670       0.00006174       0.00015485 </v>
   <v>       0.00036317      -0.00004878      -0.00009569 </v>
   <v>      -0.00000014       0.00008808       0.00008585 </v>
   <v>       0.00001135       0.00008578       0.00008820 </v>
   <v>      -0.00035181      -0.00009689      -0.00004907 </v>
   <v>       0.00021348      -0.00011436      -0.00011436 </v>
   <v>       0.00000630       0.00015306       0.00015306 </v>
   <v>      -0.00020326      -0.00011394      -0.00011394 </v>
   <v>       0.00000565       0.00007227       0.00007227 </v>
  </varray>
  <varray name="stress" >
   <v>      -0.22064850       0.03312937       0.03312937 </v>
   <v>       0.03312930      -0.22117636       0.00116448 </v>
   <v>       0.03312930       0.00116448      -0.22117636 </v>
  </varray>
  <energy>
   <i name="e_fr_energy">   -633.20280582 </i>
   <i name="e_wo_entrp">   -633.20280582 </i>
   <i name="e_0_energy">   -633.20280582 </i>
  </energy>
  <time name="totalsc"> 1483.94 1490.71</time>
  <eigenvalues>
   <array>
    <dimension dim="1">band</dimension>
    <dimension dim="2">kpoint</dimension>
    <dimension dim="3">spin</dimension>
    <field>eigene</field>
    <field>occ</field>
    <set>
     <set comment="spin 1">
      <set comment="kpoint 1">
       <r>  -19.2242    1.0000 </r>
       <r>  -19.2242    1.0000 </r>
       <r>  -19.2242    1.0000 </r>
       <r>  -19.2212    1.0000 </r>
       <r>  -19.2212    1.0000 </r>
       <r>  -19.2211    1.0000 </r>
       <r>  -19.2211    1.0000 </r>
       <r>  -19.2211    1.0000 </r>
       <r>  -19.2211    1.0000 </r>
       <r>  -19.2204    1.0000 </r>
       <r>  -19.2204    1.0000 </r>
       <r>  -19.2203    1.0000 </r>
       <r>  -19.2203    1.0000 </r>
       <r>  -19.2203    1.0000 </r>
       <r>  -19.2202    1.0000 </r>
       <r>  -19.2202    1.0000 </r>
       <r>  -19.2202    1.0000 </r>
       <r>  -19.2201    1.0000 </r>
       <r>  -19.2201    1.0000 </r>
       <r>  -19.2201    1.0000 </r>
       <r>  -19.2201    1.0000 </r>
       <r>  -19.2201    1.0000 </r>
       <r>  -19.2201    1.0000 </r>
       <r>  -19.2200    1.0000 </r>
       <r>  -19.2200    1.0000 </r>
       <r>  -19.2200    1.0000 </r>
       <r>  -19.2200    1.0000 </r>
       <r>  -19.2199    1.0000 </r>
       <r>  -19.2199    1.0000 </r>
       <r>  -19.2199    1.0000 </r>
       <r>  -19.2199    1.0000 </r>
       <r>  -19.2198    1.0000 </r>
       <r>  -19.2198    1.0000 </r>
       <r>  -19.2189    1.0000 </r>
       <r>  -19.2189    1.0000 </r>
       <r>  -19.2188    1.0000 </r>
       <r>  -19.2188    1.0000 </r>
       <r>  -19.2188    1.0000 </r>
       <r>  -19.2187    1.0000 </r>
       <r>  -19.2184    1.0000 </r>
       <r>  -19.2181    1.0000 </r>
       <r>  -19.2181    1.0000 </r>
       <r>  -19.2181    1.0000 </r>
       <r>  -19.2181    1.0000 </r>
       <r>  -19.2179    1.0000 </r>
       <r>  -19.2179    1.0000 </r>
       <r>  -19.2179    1.0000 </r>
       <r>  -19.2179    1.0000 </r>
       <r>  -19.2179    1.0000 </r>
       <r>  -19.2178    1.0000 </r>
       <r>  -19.2178    1.0000 </r>
       <r>  -19.2177    1.0000 </r>
       <r>  -19.2177    1.0000 </r>
       <r>  -19.2177    1.0000 </r>
       <r>  -19.2177    1.0000 </r>
       <r>  -19.2176    1.0000 </r>
       <r>  -19.2176    1.0000 </r>
       <r>  -19.2176    1.0000 </r>
       <r>  -19.2176    1.0000 </r>
       <r>  -19.2175    1.0000 </r>
       <r>  -19.2175    1.0000 </r>
       <r>  -19.2174    1.0000 </r>
       <r>  -19.2174    1.0000 </r>
       <r>  -19.2174    1.0000 </r>
       <r>  -19.2173    1.0000 </r>
       <r>  -19.2173    1.0000 </r>
       <r>  -19.2156    1.0000 </r>
       <r>  -19.2156    1.0000 </r>
       <r>  -19.2156    1.0000 </r>
       <r>  -19.2155    1.0000 </r>
       <r>  -19.2154    1.0000 </r>
       <r>  -19.2154    1.0000 </r>
       <r>  -19.2154    1.0000 </r>
       <r>  -19.2154    1.0000 </r>
       <r>  -19.2154    1.0000 </r>
       <r>  -19.2153    1.0000 </r>
       <r>  -19.2153    1.0000 </r>
       <r>  -19.2153    1.0000 </r>
       <r>  -19.2152    1.0000 </r>
       <r>  -19.2152    1.0000 </r>
       <r>  -19.2152    1.0000 </r>
       <r>  -19.2151    1.0000 </r>
       <r>  -19.2134    1.0000 </r>
       <r>  -19.2134    1.0000 </r>
       <r>  -19.2134    1.0000 </r>
       <r>  -19.2134    1.0000 </r>
       <r>  -19.2133    1.0000 </r>
       <r>  -19.2133    1.0000 </r>
       <r>  -19.2133    1.0000 </r>
       <r>  -19.2133    1.0000 </r>
       <r>  -19.2133    1.0000 </r>
       <r>  -19.2132    1.0000 </r>
       <r>  -19.2132    1.0000 </r>
       <r>  -19.2132    1.0000 </r>
       <r>  -19.2132    1.0000 </r>
       <r>  -19.2132    1.0000 </r>
       <r>  -19.2132    1.0000 </r>
       <r>  -19.2132    1.0000 </r>
       <r>  -19.2131    1.0000 </r>
       <r>  -19.2131    1.0000 </r>
       <r>  -19.2131    1.0000 </r>
       <r>  -19.2131    1.0000 </r>
       <r>  -19.2129    1.0000 </r>
       <r>  -19.2128    1.0000 </r>
       <r>  -19.2128    1.0000 </r>
       <r>  -19.2128    1.0000 </r>
       <r>  -19.2128    1.0000 </r>
       <r>  -19.2127    1.0000 </r>
       <r>  -19.2127    1.0000 </r>
       <r>  -19.2127    1.0000 </r>
       <r>  -19.2127    1.0000 </r>
       <r>  -19.2126    1.0000 </r>
       <r>  -19.2126    1.0000 </r>
       <r>  -19.2126    1.0000 </r>
       <r>  -19.2126    1.0000 </r>
       <r>  -19.2126    1.0000 </r>
       <r>  -19.2126    1.0000 </r>
       <r>  -19.2126    1.0000 </r>
       <r>  -19.2126    1.0000 </r>
       <r>  -19.2125    1.0000 </r>
       <r>  -19.2124    1.0000 </r>
       <r>  -19.2124    1.0000 </r>
       <r>  -19.2124    1.0000 </r>
       <r>  -19.2123    1.0000 </r>
       <r>  -19.2123    1.0000 </r>
       <r>  -19.2123    1.0000 </r>
       <r>  -19.2123    1.0000 </r>
       <r>  -19.2123    1.0000 </r>
       <r>  -19.2122    1.0000 </r>
       <r>  -19.2122    1.0000 </r>
       <r>  -19.2122    1.0000 </r>
       <r>  -19.2121    1.0000 </r>
       <r>  -19.2113    1.0000 </r>
       <r>  -19.2113    1.0000 </r>
       <r>  -19.2112    1.0000 </r>
       <r>  -19.2112    1.0000 </r>
       <r>  -19.2112    1.0000 </r>
       <r>  -19.2112    1.0000 </r>
       <r>  -19.2111    1.0000 </r>
       <r>  -19.2111    1.0000 </r>
       <r>  -19.2110    1.0000 </r>
       <r>  -19.2110    1.0000 </r>
       <r>  -19.2110    1.0000 </r>
       <r>  -19.2110    1.0000 </r>
       <r>  -19.2110    1.0000 </r>
       <r>  -19.2110    1.0000 </r>
       <r>  -19.2110    1.0000 </r>
       <r>  -19.2109    1.0000 </r>
       <r>  -19.2109    1.0000 </r>
       <r>  -19.2108    1.0000 </r>
       <r>  -19.2108    1.0000 </r>
       <r>  -19.2108    1.0000 </r>
       <r>  -19.2107    1.0000 </r>
       <r>  -19.2107    1.0000 </r>
       <r>  -19.2107    1.0000 </r>
       <r>  -19.2106    1.0000 </r>
       <r>  -19.2103    1.0000 </r>
       <r>  -19.2103    1.0000 </r>
       <r>  -19.2102    1.0000 </r>
       <r>  -19.2102    1.0000 </r>
       <r>  -19.2101    1.0000 </r>
       <r>  -19.2101    1.0000 </r>
       <r>  -19.2101    1.0000 </r>
       <r>  -19.2101    1.0000 </r>
       <r>  -19.2101    1.0000 </r>
       <r>  -19.2101    1.0000 </r>
       <r>  -19.2100    1.0000 </r>
       <r>  -19.2100    1.0000 </r>
       <r>  -19.2100    1.0000 </r>
       <r>  -19.2100    1.0000 </r>
       <r>  -19.2099    1.0000 </r>
       <r>  -19.2099    1.0000 </r>
       <r>  -19.2099    1.0000 </r>
       <r>  -19.2099    1.0000 </r>
       <r>  -19.2098    1.0000 </r>
       <r>  -19.2098    1.0000 </r>
       <r>  -19.2098    1.0000 </r>
       <r>  -19.2097    1.0000 </r>
       <r>  -19.2097    1.0000 </r>
       <r>  -19.2096    1.0000 </r>
       <r>  -19.2072    1.0000 </r>
       <r>  -19.2072    1.0000 </r>
       <r>  -19.2072    1.0000 </r>
       <r>  -19.2072    1.0000 </r>
       <r>  -19.2072    1.0000 </r>
       <r>  -19.2072    1.0000 </r>
       <r>  -19.2072    1.0000 </r>
       <r>  -19.2072    1.0000 </r>
       <r>  -19.2072    1.0000 </r>
       <r>  -19.2071    1.0000 </r>
       <r>  -19.2071    1.0000 </r>
       <r>  -19.2071    1.0000 </r>
       <r>  -19.1964    1.0000 </r>
       <r>  -19.1964    1.0000 </r>
       <r>  -19.1963    1.0000 </r>
       <r>  -19.1948    1.0000 </r>
       <r>  -19.1947    1.0000 </r>
       <r>  -19.1946    1.0000 </r>
       <r>  -19.1946    1.0000 </r>
       <r>  -19.1945    1.0000 </r>
       <r>  -19.1944    1.0000 </r>
       <r>  -19.1944    1.0000 </r>
       <r>  -19.1943    1.0000 </r>
       <r>  -19.1943    1.0000 </r>
       <r>  -19.1943    1.0000 </r>
       <r>  -19.1942    1.0000 </r>
       <r>  -19.1942    1.0000 </r>
       <r>  -19.1941    1.0000 </r>
       <r>  -19.1941    1.0000 </r>
       <r>  -19.1940    1.0000 </r>
       <r>  -19.1940    1.0000 </r>
       <r>  -19.1940    1.0000 </r>
       <r>  -19.1940    1.0000 </r>
       <r>  -19.1940    1.0000 </r>
       <r>  -19.1939    1.0000 </r>
       <r>  -19.1939    1.0000 </r>
       <r>  -19.1939    1.0000 </r>
       <r>  -19.1939    1.0000 </r>
       <r>  -19.1939    1.0000 </r>
       <r>  -19.1939    1.0000 </r>
       <r>  -19.1938    1.0000 </r>
       <r>  -19.1938    1.0000 </r>
       <r>  -19.1938    1.0000 </r>
       <r>  -19.1938    1.0000 </r>
       <r>  -19.1937    1.0000 </r>
       <r>  -19.1937    1.0000 </r>
       <r>  -19.1936    1.0000 </r>
       <r>  -19.1936    1.0000 </r>
       <r>  -19.1936    1.0000 </r>
       <r>  -19.1936    1.0000 </r>
       <r>  -19.1935    1.0000 </r>
       <r>  -19.1927    1.0000 </r>
       <r>  -19.1926    1.0000 </r>
       <r>  -19.1925    1.0000 </r>
       <r>  -19.1923    1.0000 </r>
       <r>  -19.1923    1.0000 </r>
       <r>  -19.1922    1.0000 </r>
       <r>  -19.1922    1.0000 </r>
       <r>  -19.1922    1.0000 </r>
       <r>  -19.1921    1.0000 </r>
       <r>  -19.1921    1.0000 </r>
       <r>  -19.1921    1.0000 </r>
       <r>  -19.1920    1.0000 </r>
       <r>  -19.1920    1.0000 </r>
       <r>  -19.1920    1.0000 </r>
       <r>  -19.1920    1.0000 </r>
       <r>  -19.1920    1.0000 </r>
       <r>  -19.1920    1.0000 </r>
       <r>  -19.1919    1.0000 </r>
       <r>  -19.1919    1.0000 </r>
       <r>  -19.1919    1.0000 </r>
       <r>  -19.1919    1.0000 </r>
       <r>  -19.1919    1.0000 </r>
       <r>  -19.1919    1.0000 </r>
       <r>  -19.1918    1.0000 </r>
       <r>  -19.1918    1.0000 </r>
       <r>  -19.1918    1.0000 </r>
       <r>  -19.1918    1.0000 </r>
       <r>  -19.1917    1.0000 </r>
       <r>  -19.1917    1.0000 </r>
       <r>  -19.1917    1.0000 </r>
       <r>  -19.1916    1.0000 </r>
       <r>  -19.1915    1.0000 </r>
       <r>  -19.1915    1.0000 </r>
       <r>  -19.1915    1.0000 </r>
       <r>  -19.1915    1.0000 </r>
       <r>  -19.1915    1.0000 </r>
       <r>  -19.1914    1.0000 </r>
       <r>  -19.1914    1.0000 </r>
       <r>  -19.1914    1.0000 </r>
       <r>  -19.1913    1.0000 </r>
       <r>  -19.1913    1.0000 </r>
       <r>  -19.1913    1.0000 </r>
       <r>  -19.1912    1.0000 </r>
       <r>  -19.1911    1.0000 </r>
       <r>  -19.1911    1.0000 </r>
       <r>  -19.1911    1.0000 </r>
       <r>  -19.1911    1.0000 </r>
       <r>  -19.1911    1.0000 </r>
       <r>  -19.1911    1.0000 </r>
       <r>  -19.1909    1.0000 </r>
       <r>  -19.1903    1.0000 </r>
       <r>  -19.1903    1.0000 </r>
       <r>  -19.1903    1.0000 </r>
       <r>  -19.1902    1.0000 </r>
       <r>  -19.1901    1.0000 </r>
       <r>  -19.1901    1.0000 </r>
       <r>  -19.1901    1.0000 </r>
       <r>  -19.1901    1.0000 </r>
       <r>  -19.1900    1.0000 </r>
       <r>  -19.1900    1.0000 </r>
       <r>  -19.1900    1.0000 </r>
       <r>  -19.1899    1.0000 </r>
       <r>  -19.1899    1.0000 </r>
       <r>  -19.1898    1.0000 </r>
       <r>  -19.1898    1.0000 </r>
       <r>  -19.1898    1.0000 </r>
       <r>  -19.1898    1.0000 </r>
       <r>  -19.1897    1.0000 </r>
       <r>  -19.1897    1.0000 </r>
       <r>  -19.1897    1.0000 </r>
       <r>  -19.1897    1.0000 </r>
       <r>  -19.1897    1.0000 </r>
       <r>  -19.1897    1.0000 </r>
       <r>  -19.1897    1.0000 </r>
       <r>  -19.1897    1.0000 </r>
       <r>  -19.1896    1.0000 </r>
       <r>  -19.1896    1.0000 </r>
       <r>  -19.1895    1.0000 </r>
       <r>  -19.1895    1.0000 </r>
       <r>  -19.1894    1.0000 </r>
       <r>  -19.1893    1.0000 </r>
       <r>  -19.1893    1.0000 </r>
       <r>  -19.1892    1.0000 </r>
       <r>  -19.1892    1.0000 </r>
       <r>  -19.1891    1.0000 </r>
       <r>  -19.1890    1.0000 </r>
       <r>  -19.1878    1.0000 </r>
       <r>  -19.1878    1.0000 </r>
       <r>  -19.1878    1.0000 </r>
       <r>   -7.0785    1.0000 </r>
       <r>   -6.3350    1.0000 </r>
       <r>   -6.3340    1.0000 </r>
       <r>   -6.3339    1.0000 </r>
       <r>   -6.3339    1.0000 </r>
       <r>   -6.3339    1.0000 </r>
       <r>   -6.3339    1.0000 </r>
       <r>   -6.3338    1.0000 </r>
       <r>   -6.3328    1.0000 </r>
       <r>   -6.0684    1.0000 </r>
       <r>   -6.0675    1.0000 </r>
       <r>   -6.0675    1.0000 </r>
       <r>   -6.0675    1.0000 </r>
       <r>   -6.0675    1.0000 </r>
       <r>   -6.0666    1.0000 </r>
       <r>   -5.1937    1.0000 </r>
       <r>   -5.1919    1.0000 </r>
       <r>   -5.1919    1.0000 </r>
       <r>   -5.1918    1.0000 </r>
       <r>   -5.1918    1.0000 </r>
       <r>   -5.1917    1.0000 </r>
       <r>   -5.1917    1.0000 </r>
       <r>   -5.1917    1.0000 </r>
       <r>   -5.1917    1.0000 </r>
       <r>   -5.1916    1.0000 </r>
       <r>   -5.1916    1.0000 </r>
       <r>   -5.1898    1.0000 </r>
       <r>   -4.9751    1.0000 </r>
       <r>   -4.9745    1.0000 </r>
       <r>   -4.9745    1.0000 </r>
       <r>   -4.9740    1.0000 </r>
       <r>   -4.5909    1.0000 </r>
       <r>   -4.5875    1.0000 </r>
       <r>   -4.5874    1.0000 </r>
       <r>   -4.5873    1.0000 </r>
       <r>   -4.5872    1.0000 </r>
       <r>   -4.5871    1.0000 </r>
       <r>   -4.5871    1.0000 </r>
       <r>   -4.5871    1.0000 </r>
       <r>   -4.5871    1.0000 </r>
       <r>   -4.5871    1.0000 </r>
       <r>   -4.5870    1.0000 </r>
       <r>   -4.5870    1.0000 </r>
       <r>   -4.5870    1.0000 </r>
       <r>   -4.5870    1.0000 </r>
       <r>   -4.5870    1.0000 </r>
       <r>   -4.5870    1.0000 </r>
       <r>   -4.5870    1.0000 </r>
       <r>   -4.5870    1.0000 </r>
       <r>   -4.5869    1.0000 </r>
       <r>   -4.5869    1.0000 </r>
       <r>   -4.5868    1.0000 </r>
       <r>   -4.5867    1.0000 </r>
       <r>   -4.5866    1.0000 </r>
       <r>   -4.5832    1.0000 </r>
       <r>   -3.5628    1.0000 </r>
       <r>   -3.5628    1.0000 </r>
       <r>   -3.5628    1.0000 </r>
       <r>   -3.4742    1.0000 </r>
       <r>   -3.4741    1.0000 </r>
       <r>   -3.4740    1.0000 </r>
       <r>   -3.4740    1.0000 </r>
       <r>   -3.4740    1.0000 </r>
       <r>   -3.4739    1.0000 </r>
       <r>   -2.7385    1.0000 </r>
       <r>   -2.7380    1.0000 </r>
       <r>   -2.7376    1.0000 </r>
       <r>   -2.5879    1.0000 </r>
       <r>   -2.5869    1.0000 </r>
       <r>   -2.5869    1.0000 </r>
       <r>   -2.5869    1.0000 </r>
       <r>   -2.5868    1.0000 </r>
       <r>   -2.5858    1.0000 </r>
       <r>   -1.9890    1.0000 </r>
       <r>   -1.9884    1.0000 </r>
       <r>   -1.9884    1.0000 </r>
       <r>   -1.9877    1.0000 </r>
       <r>   -1.6363    1.0000 </r>
       <r>   -1.6325    1.0000 </r>
       <r>   -1.6322    1.0000 </r>
       <r>   -1.6321    1.0000 </r>
       <r>   -1.6321    1.0000 </r>
       <r>   -1.6320    1.0000 </r>
       <r>   -1.6320    1.0000 </r>
       <r>   -1.6320    1.0000 </r>
       <r>   -1.6319    1.0000 </r>
       <r>   -1.6319    1.0000 </r>
       <r>   -1.6319    1.0000 </r>
       <r>   -1.6319    1.0000 </r>
       <r>   -1.6319    1.0000 </r>
       <r>   -1.6319    1.0000 </r>
       <r>   -1.6318    1.0000 </r>
       <r>   -1.6318    1.0000 </r>
       <r>   -1.6318    1.0000 </r>
       <r>   -1.6318    1.0000 </r>
       <r>   -1.6317    1.0000 </r>
       <r>   -1.6317    1.0000 </r>
       <r>   -1.6316    1.0000 </r>
       <r>   -1.6315    1.0000 </r>
       <r>   -1.6313    1.0000 </r>
       <r>   -1.6275    1.0000 </r>
       <r>   -0.7973    1.0000 </r>
       <r>   -0.7954    1.0000 </r>
       <r>   -0.7953    1.0000 </r>
       <r>   -0.7953    1.0000 </r>
       <r>   -0.7953    1.0000 </r>
       <r>   -0.7952    1.0000 </r>
       <r>   -0.7952    1.0000 </r>
       <r>   -0.7951    1.0000 </r>
       <r>   -0.7951    1.0000 </r>
       <r>   -0.7951    1.0000 </r>
       <r>   -0.7949    1.0000 </r>
       <r>   -0.7931    1.0000 </r>
       <r>    0.8764    1.0000 </r>
       <r>    0.8772    1.0000 </r>
       <r>    0.8776    1.0000 </r>
       <r>    0.8776    1.0000 </r>
       <r>    0.8776    1.0000 </r>
       <r>    0.8776    1.0000 </r>
       <r>    0.8780    1.0000 </r>
       <r>    0.8788    1.0000 </r>
       <r>    1.0276    1.0000 </r>
       <r>    1.0286    1.0000 </r>
       <r>    1.0287    1.0000 </r>
       <r>    1.0287    1.0000 </r>
       <r>    1.0288    1.0000 </r>
       <r>    1.0298    1.0000 </r>
       <r>    1.3206    1.0000 </r>
       <r>    1.3207    1.0000 </r>
       <r>    1.3208    1.0000 </r>
       <r>    1.3208    1.0000 </r>
       <r>    1.3208    1.0000 </r>
       <r>    1.3209    1.0000 </r>
       <r>    1.3866    1.0000 </r>
       <r>    1.3868    1.0000 </r>
       <r>    1.3873    1.0000 </r>
       <r>    1.3873    1.0000 </r>
       <r>    1.3878    1.0000 </r>
       <r>    1.3879    1.0000 </r>
       <r>    1.4139    1.0000 </r>
       <r>    1.4141    1.0000 </r>
       <r>    1.4142    1.0000 </r>
       <r>    1.4148    1.0000 </r>
       <r>    1.4148    1.0000 </r>
       <r>    1.4148    1.0000 </r>
       <r>    1.4148    1.0000 </r>
       <r>    1.4149    1.0000 </r>
       <r>    1.4149    1.0000 </r>
       <r>    1.4155    1.0000 </r>
       <r>    1.4155    1.0000 </r>
       <r>    1.4157    1.0000 </r>
       <r>    1.5751    1.0000 </r>
       <r>    1.5754    1.0000 </r>
       <r>    1.5760    1.0000 </r>
       <r>    1.5769    1.0000 </r>
       <r>    1.5769    1.0000 </r>
       <r>    1.5770    1.0000 </r>
       <r>    1.5770    1.0000 </r>
       <r>    1.5770    1.0000 </r>
       <r>    1.5771    1.0000 </r>
       <r>    1.5771    1.0000 </r>
       <r>    1.5771    1.0000 </r>
       <r>    1.5771    1.0000 </r>
       <r>    1.5771    1.0000 </r>
       <r>    1.5771    1.0000 </r>
       <r>    1.5772    1.0000 </r>
       <r>    1.5772    1.0000 </r>
       <r>    1.5773    1.0000 </r>
       <r>    1.5773    1.0000 </r>
       <r>    1.5773    1.0000 </r>
       <r>    1.5773    1.0000 </r>
       <r>    1.5774    1.0000 </r>
       <r>    1.5783    1.0000 </r>
       <r>    1.5788    1.0000 </r>
       <r>    1.5792    1.0000 </r>
       <r>    2.2206    1.0000 </r>
       <r>    2.2209    1.0000 </r>
       <r>    2.2210    1.0000 </r>
       <r>    2.2210    1.0000 </r>
       <r>    2.2211    1.0000 </r>
       <r>    2.2215    1.0000 </r>
       <r>    2.8612    1.0000 </r>
       <r>    2.8628    1.0000 </r>
       <r>    2.8634    1.0000 </r>
       <r>    2.8634    1.0000 </r>
       <r>    2.8637    1.0000 </r>
       <r>    2.8637    1.0000 </r>
       <r>    2.8638    1.0000 </r>
       <r>    2.8638    1.0000 </r>
       <r>    2.8638    1.0000 </r>
       <r>    2.8638    1.0000 </r>
       <r>    2.8639    1.0000 </r>
       <r>    2.8639    1.0000 </r>
       <r>    2.8639    1.0000 </r>
       <r>    2.8639    1.0000 </r>
       <r>    2.8639    1.0000 </r>
       <r>    2.8639    1.0000 </r>
       <r>    2.8639    1.0000 </r>
       <r>    2.8639    1.0000 </r>
       <r>    2.8640    1.0000 </r>
       <r>    2.8640    1.0000 </r>
       <r>    2.8643    1.0000 </r>
       <r>    2.8643    1.0000 </r>
       <r>    2.8650    1.0000 </r>
       <r>    2.8665    1.0000 </r>
       <r>    3.1978    1.0000 </r>
       <r>    3.1990    1.0000 </r>
       <r>    3.1992    1.0000 </r>
       <r>    3.1994    1.0000 </r>
       <r>    3.1994    1.0000 </r>
       <r>    3.1994    1.0000 </r>
       <r>    3.1994    1.0000 </r>
       <r>    3.1994    1.0000 </r>
       <r>    3.1995    1.0000 </r>
       <r>    3.1996    1.0000 </r>
       <r>    3.1998    1.0000 </r>
       <r>    3.2010    1.0000 </r>
       <r>    3.7234    1.0000 </r>
       <r>    3.7245    1.0000 </r>
       <r>    3.7250    1.0000 </r>
       <r>    3.7251    1.0000 </r>
       <r>    3.7251    1.0000 </r>
       <r>    3.7252    1.0000 </r>
       <r>    3.7252    1.0000 </r>
       <r>    3.7253    1.0000 </r>
       <r>    3.7253    1.0000 </r>
       <r>    3.7254    1.0000 </r>
       <r>    3.7259    1.0000 </r>
       <r>    3.7269    1.0000 </r>
       <r>    3.8300    1.0000 </r>
       <r>    3.8310    1.0000 </r>
       <r>    3.8312    1.0000 </r>
       <r>    3.8312    1.0000 </r>
       <r>    3.8314    1.0000 </r>
       <r>    3.8314    1.0000 </r>
       <r>    3.8316    1.0000 </r>
       <r>    3.8326    1.0000 </r>
       <r>    4.3037    1.0000 </r>
       <r>    4.3063    1.0000 </r>
       <r>    4.3064    1.0000 </r>
       <r>    4.3065    1.0000 </r>
       <r>    4.3067    1.0000 </r>
       <r>    4.3067    1.0000 </r>
       <r>    4.3067    1.0000 </r>
       <r>    4.3067    1.0000 </r>
       <r>    4.3068    1.0000 </r>
       <r>    4.3068    1.0000 </r>
       <r>    4.3068    1.0000 </r>
       <r>    4.3068    1.0000 </r>
       <r>    4.3070    1.0000 </r>
       <r>    4.3071    1.0000 </r>
       <r>    4.3072    1.0000 </r>
       <r>    4.3098    1.0000 </r>
       <r>    5.1093    1.0000 </r>
       <r>    5.1100    1.0000 </r>
       <r>    5.1108    1.0000 </r>
       <r>    5.7775    0.0000 </r>
       <r>    5.7775    0.0000 </r>
       <r>    5.7775    0.0000 </r>
       <r>    5.8952    0.0000 </r>
       <r>    5.8955    0.0000 </r>
       <r>    5.8955    0.0000 </r>
       <r>    5.8958    0.0000 </r>
       <r>    6.0688    0.0000 </r>
       <r>    6.0695    0.0000 </r>
       <r>    6.0703    0.0000 </r>
       <r>    6.2156    0.0000 </r>
       <r>    6.2159    0.0000 </r>
       <r>    6.2164    0.0000 </r>
       <r>    6.2164    0.0000 </r>
       <r>    6.2168    0.0000 </r>
       <r>    6.2171    0.0000 </r>
       <r>    6.3901    0.0000 </r>
       <r>    6.3908    0.0000 </r>
       <r>    6.3909    0.0000 </r>
       <r>    6.3910    0.0000 </r>
       <r>    6.3910    0.0000 </r>
       <r>    6.3910    0.0000 </r>
       <r>    6.3911    0.0000 </r>
       <r>    6.3918    0.0000 </r>
       <r>    6.4717    0.0000 </r>
       <r>    6.6240    0.0000 </r>
       <r>    6.6249    0.0000 </r>
       <r>    6.6264    0.0000 </r>
       <r>    6.6266    0.0000 </r>
       <r>    6.6267    0.0000 </r>
       <r>    6.6267    0.0000 </r>
       <r>    6.6267    0.0000 </r>
       <r>    6.6268    0.0000 </r>
       <r>    6.6268    0.0000 </r>
       <r>    6.6268    0.0000 </r>
       <r>    6.6269    0.0000 </r>
       <r>    6.6269    0.0000 </r>
       <r>    6.6269    0.0000 </r>
       <r>    6.6269    0.0000 </r>
       <r>    6.6269    0.0000 </r>
       <r>    6.6269    0.0000 </r>
       <r>    6.6269    0.0000 </r>
       <r>    6.6270    0.0000 </r>
       <r>    6.6270    0.0000 </r>
       <r>    6.6271    0.0000 </r>
       <r>    6.6271    0.0000 </r>
       <r>    6.6273    0.0000 </r>
       <r>    6.6288    0.0000 </r>
       <r>    6.6297    0.0000 </r>
       <r>    7.3356    0.0000 </r>
       <r>    7.3360    0.0000 </r>
       <r>    7.3368    0.0000 </r>
       <r>    7.3369    0.0000 </r>
       <r>    7.3369    0.0000 </r>
       <r>    7.3370    0.0000 </r>
       <r>    7.3370    0.0000 </r>
       <r>    7.3370    0.0000 </r>
       <r>    7.3370    0.0000 </r>
       <r>    7.3372    0.0000 </r>
       <r>    7.3379    0.0000 </r>
       <r>    7.3384    0.0000 </r>
       <r>    7.6381    0.0000 </r>
       <r>    7.6386    0.0000 </r>
       <r>    7.6391    0.0000 </r>
       <r>    8.1262    0.0000 </r>
       <r>    8.1264    0.0000 </r>
       <r>    8.1268    0.0000 </r>
       <r>    8.1268    0.0000 </r>
       <r>    8.1272    0.0000 </r>
       <r>    8.1275    0.0000 </r>
       <r>    8.6363    0.0000 </r>
       <r>    8.6371    0.0000 </r>
       <r>    8.6384    0.0000 </r>
       <r>    8.6385    0.0000 </r>
       <r>    8.6386    0.0000 </r>
       <r>    8.6387    0.0000 </r>
       <r>    8.6387    0.0000 </r>
       <r>    8.6387    0.0000 </r>
       <r>    8.6387    0.0000 </r>
       <r>    8.6388    0.0000 </r>
       <r>    8.6388    0.0000 </r>
       <r>    8.6389    0.0000 </r>
       <r>    8.6390    0.0000 </r>
       <r>    8.6391    0.0000 </r>
       <r>    8.6401    0.0000 </r>
       <r>    8.6408    0.0000 </r>
       <r>    8.6547    0.0000 </r>
       <r>    8.6549    0.0000 </r>
       <r>    8.6557    0.0000 </r>
       <r>    8.6557    0.0000 </r>
       <r>    8.6557    0.0000 </r>
       <r>    8.6557    0.0000 </r>
       <r>    8.6567    0.0000 </r>
       <r>    8.6570    0.0000 </r>
       <r>    9.4191    0.0000 </r>
       <r>    9.4192    0.0000 </r>
       <r>    9.4194    0.0000 </r>
       <r>    9.4198    0.0000 </r>
       <r>    9.4213    0.0000 </r>
       <r>    9.4221    0.0000 </r>
       <r>    9.4823    0.0000 </r>
       <r>    9.4836    0.0000 </r>
       <r>    9.4841    0.0000 </r>
       <r>    9.4843    0.0000 </r>
       <r>    9.4845    0.0000 </r>
       <r>    9.4846    0.0000 </r>
       <r>    9.4846    0.0000 </r>
       <r>    9.4847    0.0000 </r>
       <r>    9.4847    0.0000 </r>
       <r>    9.4847    0.0000 </r>
       <r>    9.4847    0.0000 </r>
       <r>    9.4848    0.0000 </r>
       <r>    9.4848    0.0000 </r>
       <r>    9.4850    0.0000 </r>
       <r>    9.4851    0.0000 </r>
       <r>    9.4852    0.0000 </r>
       <r>    9.4856    0.0000 </r>
       <r>    9.4857    0.0000 </r>
       <r>    9.4866    0.0000 </r>
       <r>    9.4876    0.0000 </r>
       <r>    9.4892    0.0000 </r>
       <r>    9.4925    0.0000 </r>
       <r>    9.5048    0.0000 </r>
       <r>    9.5150    0.0000 </r>
       <r>    9.5425    0.0000 </r>
       <r>    9.5430    0.0000 </r>
       <r>    9.5449    0.0000 </r>
       <r>    9.5526    0.0000 </r>
      </set>
      <set comment="kpoint 2">
       <r>  -19.2236    1.0000 </r>
       <r>  -19.2236    1.0000 </r>
       <r>  -19.2236    1.0000 </r>
       <r>  -19.2221    1.0000 </r>
       <r>  -19.2220    1.0000 </r>
       <r>  -19.2220    1.0000 </r>
       <r>  -19.2215    1.0000 </r>
       <r>  -19.2215    1.0000 </r>
       <r>  -19.2215    1.0000 </r>
       <r>  -19.2212    1.0000 </r>
       <r>  -19.2211    1.0000 </r>
       <r>  -19.2211    1.0000 </r>
       <r>  -19.2202    1.0000 </r>
       <r>  -19.2202    1.0000 </r>
       <r>  -19.2201    1.0000 </r>
       <r>  -19.2201    1.0000 </r>
       <r>  -19.2200    1.0000 </r>
       <r>  -19.2200    1.0000 </r>
       <r>  -19.2199    1.0000 </r>
       <r>  -19.2199    1.0000 </r>
       <r>  -19.2199    1.0000 </r>
       <r>  -19.2196    1.0000 </r>
       <r>  -19.2195    1.0000 </r>
       <r>  -19.2195    1.0000 </r>
       <r>  -19.2195    1.0000 </r>
       <r>  -19.2194    1.0000 </r>
       <r>  -19.2194    1.0000 </r>
       <r>  -19.2192    1.0000 </r>
       <r>  -19.2192    1.0000 </r>
       <r>  -19.2192    1.0000 </r>
       <r>  -19.2191    1.0000 </r>
       <r>  -19.2191    1.0000 </r>
       <r>  -19.2190    1.0000 </r>
       <r>  -19.2189    1.0000 </r>
       <r>  -19.2189    1.0000 </r>
       <r>  -19.2189    1.0000 </r>
       <r>  -19.2186    1.0000 </r>
       <r>  -19.2186    1.0000 </r>
       <r>  -19.2185    1.0000 </r>
       <r>  -19.2185    1.0000 </r>
       <r>  -19.2185    1.0000 </r>
       <r>  -19.2185    1.0000 </r>
       <r>  -19.2184    1.0000 </r>
       <r>  -19.2182    1.0000 </r>
       <r>  -19.2182    1.0000 </r>
       <r>  -19.2182    1.0000 </r>
       <r>  -19.2182    1.0000 </r>
       <r>  -19.2181    1.0000 </r>
       <r>  -19.2180    1.0000 </r>
       <r>  -19.2180    1.0000 </r>
       <r>  -19.2180    1.0000 </r>
       <r>  -19.2180    1.0000 </r>
       <r>  -19.2179    1.0000 </r>
       <r>  -19.2179    1.0000 </r>
       <r>  -19.2178    1.0000 </r>
       <r>  -19.2178    1.0000 </r>
       <r>  -19.2178    1.0000 </r>
       <r>  -19.2178    1.0000 </r>
       <r>  -19.2178    1.0000 </r>
       <r>  -19.2178    1.0000 </r>
       <r>  -19.2177    1.0000 </r>
       <r>  -19.2177    1.0000 </r>
       <r>  -19.2176    1.0000 </r>
       <r>  -19.2176    1.0000 </r>
       <r>  -19.2175    1.0000 </r>
       <r>  -19.2174    1.0000 </r>
       <r>  -19.2166    1.0000 </r>
       <r>  -19.2165    1.0000 </r>
       <r>  -19.2154    1.0000 </r>
       <r>  -19.2154    1.0000 </r>
       <r>  -19.2152    1.0000 </r>
       <r>  -19.2152    1.0000 </r>
       <r>  -19.2151    1.0000 </r>
       <r>  -19.2150    1.0000 </r>
       <r>  -19.2150    1.0000 </r>
       <r>  -19.2150    1.0000 </r>
       <r>  -19.2148    1.0000 </r>
       <r>  -19.2144    1.0000 </r>
       <r>  -19.2144    1.0000 </r>
       <r>  -19.2144    1.0000 </r>
       <r>  -19.2143    1.0000 </r>
       <r>  -19.2143    1.0000 </r>
       <r>  -19.2141    1.0000 </r>
       <r>  -19.2141    1.0000 </r>
       <r>  -19.2140    1.0000 </r>
       <r>  -19.2140    1.0000 </r>
       <r>  -19.2139    1.0000 </r>
       <r>  -19.2139    1.0000 </r>
       <r>  -19.2138    1.0000 </r>
       <r>  -19.2138    1.0000 </r>
       <r>  -19.2137    1.0000 </r>
       <r>  -19.2136    1.0000 </r>
       <r>  -19.2136    1.0000 </r>
       <r>  -19.2136    1.0000 </r>
       <r>  -19.2135    1.0000 </r>
       <r>  -19.2134    1.0000 </r>
       <r>  -19.2134    1.0000 </r>
       <r>  -19.2133    1.0000 </r>
       <r>  -19.2133    1.0000 </r>
       <r>  -19.2132    1.0000 </r>
       <r>  -19.2132    1.0000 </r>
       <r>  -19.2132    1.0000 </r>
       <r>  -19.2132    1.0000 </r>
       <r>  -19.2132    1.0000 </r>
       <r>  -19.2132    1.0000 </r>
       <r>  -19.2129    1.0000 </r>
       <r>  -19.2128    1.0000 </r>
       <r>  -19.2128    1.0000 </r>
       <r>  -19.2127    1.0000 </r>
       <r>  -19.2126    1.0000 </r>
       <r>  -19.2126    1.0000 </r>
       <r>  -19.2125    1.0000 </r>
       <r>  -19.2125    1.0000 </r>
       <r>  -19.2125    1.0000 </r>
       <r>  -19.2124    1.0000 </r>
       <r>  -19.2124    1.0000 </r>
       <r>  -19.2124    1.0000 </r>
       <r>  -19.2123    1.0000 </r>
       <r>  -19.2123    1.0000 </r>
       <r>  -19.2122    1.0000 </r>
       <r>  -19.2122    1.0000 </r>
       <r>  -19.2122    1.0000 </r>
       <r>  -19.2121    1.0000 </r>
       <r>  -19.2121    1.0000 </r>
       <r>  -19.2120    1.0000 </r>
       <r>  -19.2120    1.0000 </r>
       <r>  -19.2118    1.0000 </r>
       <r>  -19.2118    1.0000 </r>
       <r>  -19.2117    1.0000 </r>
       <r>  -19.2117    1.0000 </r>
       <r>  -19.2116    1.0000 </r>
       <r>  -19.2116    1.0000 </r>
       <r>  -19.2116    1.0000 </r>
       <r>  -19.2115    1.0000 </r>
       <r>  -19.2115    1.0000 </r>
       <r>  -19.2115    1.0000 </r>
       <r>  -19.2115    1.0000 </r>
       <r>  -19.2115    1.0000 </r>
       <r>  -19.2114    1.0000 </r>
       <r>  -19.2114    1.0000 </r>
       <r>  -19.2114    1.0000 </r>
       <r>  -19.2114    1.0000 </r>
       <r>  -19.2113    1.0000 </r>
       <r>  -19.2112    1.0000 </r>
       <r>  -19.2112    1.0000 </r>
       <r>  -19.2112    1.0000 </r>
       <r>  -19.2111    1.0000 </r>
       <r>  -19.2111    1.0000 </r>
       <r>  -19.2111    1.0000 </r>
       <r>  -19.2110    1.0000 </r>
       <r>  -19.2110    1.0000 </r>
       <r>  -19.2110    1.0000 </r>
       <r>  -19.2109    1.0000 </r>
       <r>  -19.2108    1.0000 </r>
       <r>  -19.2108    1.0000 </r>
       <r>  -19.2108    1.0000 </r>
       <r>  -19.2106    1.0000 </r>
       <r>  -19.2106    1.0000 </r>
       <r>  -19.2105    1.0000 </r>
       <r>  -19.2105    1.0000 </r>
       <r>  -19.2105    1.0000 </r>
       <r>  -19.2104    1.0000 </r>
       <r>  -19.2104    1.0000 </r>
       <r>  -19.2103    1.0000 </r>
       <r>  -19.2103    1.0000 </r>
       <r>  -19.2102    1.0000 </r>
       <r>  -19.2102    1.0000 </r>
       <r>  -19.2101    1.0000 </r>
       <r>  -19.2091    1.0000 </r>
       <r>  -19.2091    1.0000 </r>
       <r>  -19.2091    1.0000 </r>
       <r>  -19.2088    1.0000 </r>
       <r>  -19.2088    1.0000 </r>
       <r>  -19.2088    1.0000 </r>
       <r>  -19.2088    1.0000 </r>
       <r>  -19.2087    1.0000 </r>
       <r>  -19.2087    1.0000 </r>
       <r>  -19.2086    1.0000 </r>
       <r>  -19.2086    1.0000 </r>
       <r>  -19.2085    1.0000 </r>
       <r>  -19.2077    1.0000 </r>
       <r>  -19.2077    1.0000 </r>
       <r>  -19.2077    1.0000 </r>
       <r>  -19.2076    1.0000 </r>
       <r>  -19.2076    1.0000 </r>
       <r>  -19.2076    1.0000 </r>
       <r>  -19.2076    1.0000 </r>
       <r>  -19.2076    1.0000 </r>
       <r>  -19.2075    1.0000 </r>
       <r>  -19.2075    1.0000 </r>
       <r>  -19.2075    1.0000 </r>
       <r>  -19.2074    1.0000 </r>
       <r>  -19.1962    1.0000 </r>
       <r>  -19.1961    1.0000 </r>
       <r>  -19.1961    1.0000 </r>
       <r>  -19.1952    1.0000 </r>
       <r>  -19.1952    1.0000 </r>
       <r>  -19.1952    1.0000 </r>
       <r>  -19.1948    1.0000 </r>
       <r>  -19.1948    1.0000 </r>
       <r>  -19.1947    1.0000 </r>
       <r>  -19.1946    1.0000 </r>
       <r>  -19.1946    1.0000 </r>
       <r>  -19.1945    1.0000 </r>
       <r>  -19.1944    1.0000 </r>
       <r>  -19.1944    1.0000 </r>
       <r>  -19.1944    1.0000 </r>
       <r>  -19.1943    1.0000 </r>
       <r>  -19.1943    1.0000 </r>
       <r>  -19.1942    1.0000 </r>
       <r>  -19.1941    1.0000 </r>
       <r>  -19.1940    1.0000 </r>
       <r>  -19.1940    1.0000 </r>
       <r>  -19.1940    1.0000 </r>
       <r>  -19.1940    1.0000 </r>
       <r>  -19.1939    1.0000 </r>
       <r>  -19.1936    1.0000 </r>
       <r>  -19.1936    1.0000 </r>
       <r>  -19.1935    1.0000 </r>
       <r>  -19.1935    1.0000 </r>
       <r>  -19.1934    1.0000 </r>
       <r>  -19.1934    1.0000 </r>
       <r>  -19.1934    1.0000 </r>
       <r>  -19.1933    1.0000 </r>
       <r>  -19.1933    1.0000 </r>
       <r>  -19.1932    1.0000 </r>
       <r>  -19.1932    1.0000 </r>
       <r>  -19.1931    1.0000 </r>
       <r>  -19.1929    1.0000 </r>
       <r>  -19.1929    1.0000 </r>
       <r>  -19.1928    1.0000 </r>
       <r>  -19.1928    1.0000 </r>
       <r>  -19.1927    1.0000 </r>
       <r>  -19.1927    1.0000 </r>
       <r>  -19.1927    1.0000 </r>
       <r>  -19.1927    1.0000 </r>
       <r>  -19.1926    1.0000 </r>
       <r>  -19.1926    1.0000 </r>
       <r>  -19.1926    1.0000 </r>
       <r>  -19.1926    1.0000 </r>
       <r>  -19.1925    1.0000 </r>
       <r>  -19.1925    1.0000 </r>
       <r>  -19.1924    1.0000 </r>
       <r>  -19.1924    1.0000 </r>
       <r>  -19.1923    1.0000 </r>
       <r>  -19.1923    1.0000 </r>
       <r>  -19.1923    1.0000 </r>
       <r>  -19.1922    1.0000 </r>
       <r>  -19.1922    1.0000 </r>
       <r>  -19.1921    1.0000 </r>
       <r>  -19.1921    1.0000 </r>
       <r>  -19.1920    1.0000 </r>
       <r>  -19.1920    1.0000 </r>
       <r>  -19.1916    1.0000 </r>
       <r>  -19.1916    1.0000 </r>
       <r>  -19.1915    1.0000 </r>
       <r>  -19.1915    1.0000 </r>
       <r>  -19.1915    1.0000 </r>
       <r>  -19.1915    1.0000 </r>
       <r>  -19.1914    1.0000 </r>
       <r>  -19.1914    1.0000 </r>
       <r>  -19.1914    1.0000 </r>
       <r>  -19.1914    1.0000 </r>
       <r>  -19.1913    1.0000 </r>
       <r>  -19.1913    1.0000 </r>
       <r>  -19.1913    1.0000 </r>
       <r>  -19.1912    1.0000 </r>
       <r>  -19.1912    1.0000 </r>
       <r>  -19.1912    1.0000 </r>
       <r>  -19.1912    1.0000 </r>
       <r>  -19.1911    1.0000 </r>
       <r>  -19.1911    1.0000 </r>
       <r>  -19.1910    1.0000 </r>
       <r>  -19.1910    1.0000 </r>
       <r>  -19.1910    1.0000 </r>
       <r>  -19.1909    1.0000 </r>
       <r>  -19.1909    1.0000 </r>
       <r>  -19.1908    1.0000 </r>
       <r>  -19.1908    1.0000 </r>
       <r>  -19.1908    1.0000 </r>
       <r>  -19.1907    1.0000 </r>
       <r>  -19.1907    1.0000 </r>
       <r>  -19.1907    1.0000 </r>
       <r>  -19.1906    1.0000 </r>
       <r>  -19.1905    1.0000 </r>
       <r>  -19.1904    1.0000 </r>
       <r>  -19.1904    1.0000 </r>
       <r>  -19.1904    1.0000 </r>
       <r>  -19.1903    1.0000 </r>
       <r>  -19.1903    1.0000 </r>
       <r>  -19.1902    1.0000 </r>
       <r>  -19.1902    1.0000 </r>
       <r>  -19.1901    1.0000 </r>
       <r>  -19.1901    1.0000 </r>
       <r>  -19.1900    1.0000 </r>
       <r>  -19.1899    1.0000 </r>
       <r>  -19.1899    1.0000 </r>
       <r>  -19.1899    1.0000 </r>
       <r>  -19.1898    1.0000 </r>
       <r>  -19.1898    1.0000 </r>
       <r>  -19.1898    1.0000 </r>
       <r>  -19.1898    1.0000 </r>
       <r>  -19.1897    1.0000 </r>
       <r>  -19.1897    1.0000 </r>
       <r>  -19.1896    1.0000 </r>
       <r>  -19.1896    1.0000 </r>
       <r>  -19.1895    1.0000 </r>
       <r>  -19.1895    1.0000 </r>
       <r>  -19.1894    1.0000 </r>
       <r>  -19.1894    1.0000 </r>
       <r>  -19.1894    1.0000 </r>
       <r>  -19.1893    1.0000 </r>
       <r>  -19.1891    1.0000 </r>
       <r>  -19.1891    1.0000 </r>
       <r>  -19.1888    1.0000 </r>
       <r>  -19.1887    1.0000 </r>
       <r>  -19.1887    1.0000 </r>
       <r>  -19.1881    1.0000 </r>
       <r>  -19.1881    1.0000 </r>
       <r>  -19.1880    1.0000 </r>
       <r>   -6.9934    1.0000 </r>
       <r>   -6.7412    1.0000 </r>
       <r>   -6.4106    1.0000 </r>
       <r>   -6.4103    1.0000 </r>
       <r>   -6.4100    1.0000 </r>
       <r>   -6.3209    1.0000 </r>
       <r>   -6.3206    1.0000 </r>
       <r>   -6.3203    1.0000 </r>
       <r>   -6.0950    1.0000 </r>
       <r>   -6.0947    1.0000 </r>
       <r>   -6.0945    1.0000 </r>
       <r>   -5.8050    1.0000 </r>
       <r>   -5.7046    1.0000 </r>
       <r>   -5.7043    1.0000 </r>
       <r>   -5.7041    1.0000 </r>
       <r>   -5.6625    1.0000 </r>
       <r>   -5.6622    1.0000 </r>
       <r>   -5.6619    1.0000 </r>
       <r>   -5.2547    1.0000 </r>
       <r>   -5.1366    1.0000 </r>
       <r>   -5.1362    1.0000 </r>
       <r>   -5.1360    1.0000 </r>
       <r>   -5.1219    1.0000 </r>
       <r>   -5.1215    1.0000 </r>
       <r>   -5.1214    1.0000 </r>
       <r>   -5.1213    1.0000 </r>
       <r>   -5.1213    1.0000 </r>
       <r>   -5.1204    1.0000 </r>
       <r>   -4.9351    1.0000 </r>
       <r>   -4.9349    1.0000 </r>
       <r>   -4.9344    1.0000 </r>
       <r>   -4.9154    1.0000 </r>
       <r>   -4.9150    1.0000 </r>
       <r>   -4.9148    1.0000 </r>
       <r>   -4.9148    1.0000 </r>
       <r>   -4.9147    1.0000 </r>
       <r>   -4.9139    1.0000 </r>
       <r>   -4.8101    1.0000 </r>
       <r>   -4.8098    1.0000 </r>
       <r>   -4.8094    1.0000 </r>
       <r>   -4.6417    1.0000 </r>
       <r>   -4.6412    1.0000 </r>
       <r>   -4.6412    1.0000 </r>
       <r>   -4.3254    1.0000 </r>
       <r>   -4.3247    1.0000 </r>
       <r>   -4.3247    1.0000 </r>
       <r>   -4.2600    1.0000 </r>
       <r>   -4.2597    1.0000 </r>
       <r>   -4.2593    1.0000 </r>
       <r>   -4.1694    1.0000 </r>
       <r>   -4.1690    1.0000 </r>
       <r>   -4.1688    1.0000 </r>
       <r>   -4.1688    1.0000 </r>
       <r>   -4.1687    1.0000 </r>
       <r>   -4.1681    1.0000 </r>
       <r>   -3.8500    1.0000 </r>
       <r>   -3.8498    1.0000 </r>
       <r>   -3.8495    1.0000 </r>
       <r>   -3.7269    1.0000 </r>
       <r>   -3.7266    1.0000 </r>
       <r>   -3.7265    1.0000 </r>
       <r>   -3.7265    1.0000 </r>
       <r>   -3.7263    1.0000 </r>
       <r>   -3.7259    1.0000 </r>
       <r>   -2.3910    1.0000 </r>
       <r>   -2.3905    1.0000 </r>
       <r>   -2.3901    1.0000 </r>
       <r>   -2.3662    1.0000 </r>
       <r>   -2.3653    1.0000 </r>
       <r>   -2.3652    1.0000 </r>
       <r>   -2.3652    1.0000 </r>
       <r>   -2.3651    1.0000 </r>
       <r>   -2.3644    1.0000 </r>
       <r>   -1.9962    1.0000 </r>
       <r>   -1.9953    1.0000 </r>
       <r>   -1.9952    1.0000 </r>
       <r>   -1.9952    1.0000 </r>
       <r>   -1.9950    1.0000 </r>
       <r>   -1.9947    1.0000 </r>
       <r>   -1.9771    1.0000 </r>
       <r>   -1.9769    1.0000 </r>
       <r>   -1.9751    1.0000 </r>
       <r>   -1.9107    1.0000 </r>
       <r>   -1.9101    1.0000 </r>
       <r>   -1.9100    1.0000 </r>
       <r>   -1.8793    1.0000 </r>
       <r>   -1.8788    1.0000 </r>
       <r>   -1.8785    1.0000 </r>
       <r>   -1.7285    1.0000 </r>
       <r>   -1.7279    1.0000 </r>
       <r>   -1.7278    1.0000 </r>
       <r>   -1.5516    1.0000 </r>
       <r>   -1.5514    1.0000 </r>
       <r>   -1.5500    1.0000 </r>
       <r>   -1.5377    1.0000 </r>
       <r>   -1.2755    1.0000 </r>
       <r>   -1.2744    1.0000 </r>
       <r>   -1.2744    1.0000 </r>
       <r>   -1.2743    1.0000 </r>
       <r>   -1.2742    1.0000 </r>
       <r>   -1.2741    1.0000 </r>
       <r>   -0.9495    1.0000 </r>
       <r>   -0.9483    1.0000 </r>
       <r>   -0.9483    1.0000 </r>
       <r>   -0.9482    1.0000 </r>
       <r>   -0.9481    1.0000 </r>
       <r>   -0.9481    1.0000 </r>
       <r>   -0.8019    1.0000 </r>
       <r>   -0.8017    1.0000 </r>
       <r>   -0.8004    1.0000 </r>
       <r>   -0.4808    1.0000 </r>
       <r>   -0.1328    1.0000 </r>
       <r>   -0.1325    1.0000 </r>
       <r>   -0.1319    1.0000 </r>
       <r>    0.1554    1.0000 </r>
       <r>    0.1558    1.0000 </r>
       <r>    0.1567    1.0000 </r>
       <r>    0.3873    1.0000 </r>
       <r>    0.3878    1.0000 </r>
       <r>    0.3880    1.0000 </r>
       <r>    1.1235    1.0000 </r>
       <r>    1.1237    1.0000 </r>
       <r>    1.1239    1.0000 </r>
       <r>    1.1240    1.0000 </r>
       <r>    1.1242    1.0000 </r>
       <r>    1.1243    1.0000 </r>
       <r>    1.1408    1.0000 </r>
       <r>    1.1411    1.0000 </r>
       <r>    1.1414    1.0000 </r>
       <r>    1.2222    1.0000 </r>
       <r>    1.2223    1.0000 </r>
       <r>    1.2227    1.0000 </r>
       <r>    1.2228    1.0000 </r>
       <r>    1.2230    1.0000 </r>
       <r>    1.2231    1.0000 </r>
       <r>    1.2318    1.0000 </r>
       <r>    1.2322    1.0000 </r>
       <r>    1.2326    1.0000 </r>
       <r>    1.3282    1.0000 </r>
       <r>    1.3287    1.0000 </r>
       <r>    1.3288    1.0000 </r>
       <r>    1.4961    1.0000 </r>
       <r>    1.4967    1.0000 </r>
       <r>    1.4967    1.0000 </r>
       <r>    1.5361    1.0000 </r>
       <r>    1.5362    1.0000 </r>
       <r>    1.5366    1.0000 </r>
       <r>    1.6063    1.0000 </r>
       <r>    1.6063    1.0000 </r>
       <r>    1.6069    1.0000 </r>
       <r>    1.6070    1.0000 </r>
       <r>    1.6072    1.0000 </r>
       <r>    1.6075    1.0000 </r>
       <r>    1.8443    1.0000 </r>
       <r>    1.8443    1.0000 </r>
       <r>    1.8451    1.0000 </r>
       <r>    1.8452    1.0000 </r>
       <r>    1.8453    1.0000 </r>
       <r>    1.8455    1.0000 </r>
       <r>    1.8640    1.0000 </r>
       <r>    1.8641    1.0000 </r>
       <r>    1.8643    1.0000 </r>
       <r>    1.8643    1.0000 </r>
       <r>    1.8647    1.0000 </r>
       <r>    1.8649    1.0000 </r>
       <r>    1.9432    1.0000 </r>
       <r>    1.9434    1.0000 </r>
       <r>    1.9438    1.0000 </r>
       <r>    2.1113    1.0000 </r>
       <r>    2.1117    1.0000 </r>
       <r>    2.1119    1.0000 </r>
       <r>    2.1889    1.0000 </r>
       <r>    2.1892    1.0000 </r>
       <r>    2.1893    1.0000 </r>
       <r>    2.2272    1.0000 </r>
       <r>    2.2273    1.0000 </r>
       <r>    2.2280    1.0000 </r>
       <r>    2.2966    1.0000 </r>
       <r>    2.2969    1.0000 </r>
       <r>    2.2969    1.0000 </r>
       <r>    2.4093    1.0000 </r>
       <r>    2.4852    1.0000 </r>
       <r>    2.4854    1.0000 </r>
       <r>    2.4856    1.0000 </r>
       <r>    2.4856    1.0000 </r>
       <r>    2.4859    1.0000 </r>
       <r>    2.4864    1.0000 </r>
       <r>    2.5182    1.0000 </r>
       <r>    2.5185    1.0000 </r>
       <r>    2.5185    1.0000 </r>
       <r>    2.7327    1.0000 </r>
       <r>    2.7331    1.0000 </r>
       <r>    2.7331    1.0000 </r>
       <r>    2.8319    1.0000 </r>
       <r>    2.8322    1.0000 </r>
       <r>    2.8324    1.0000 </r>
       <r>    2.9465    1.0000 </r>
       <r>    2.9469    1.0000 </r>
       <r>    2.9470    1.0000 </r>
       <r>    2.9624    1.0000 </r>
       <r>    2.9625    1.0000 </r>
       <r>    2.9627    1.0000 </r>
       <r>    2.9627    1.0000 </r>
       <r>    2.9630    1.0000 </r>
       <r>    2.9642    1.0000 </r>
       <r>    3.0375    1.0000 </r>
       <r>    3.0379    1.0000 </r>
       <r>    3.0381    1.0000 </r>
       <r>    3.1929    1.0000 </r>
       <r>    3.1931    1.0000 </r>
       <r>    3.1940    1.0000 </r>
       <r>    3.2817    1.0000 </r>
       <r>    3.2821    1.0000 </r>
       <r>    3.2821    1.0000 </r>
       <r>    3.3372    1.0000 </r>
       <r>    3.3376    1.0000 </r>
       <r>    3.3378    1.0000 </r>
       <r>    3.3447    1.0000 </r>
       <r>    3.3450    1.0000 </r>
       <r>    3.3456    1.0000 </r>
       <r>    3.4119    1.0000 </r>
       <r>    3.4120    1.0000 </r>
       <r>    3.4120    1.0000 </r>
       <r>    3.4120    1.0000 </r>
       <r>    3.4125    1.0000 </r>
       <r>    3.4137    1.0000 </r>
       <r>    3.5034    1.0000 </r>
       <r>    3.5034    1.0000 </r>
       <r>    3.5046    1.0000 </r>
       <r>    3.5628    1.0000 </r>
       <r>    3.5632    1.0000 </r>
       <r>    3.5633    1.0000 </r>
       <r>    3.6645    1.0000 </r>
       <r>    3.6649    1.0000 </r>
       <r>    3.6650    1.0000 </r>
       <r>    3.8855    1.0000 </r>
       <r>    3.8861    1.0000 </r>
       <r>    3.9758    1.0000 </r>
       <r>    3.9763    1.0000 </r>
       <r>    3.9764    1.0000 </r>
       <r>    4.0030    1.0000 </r>
       <r>    4.0471    1.0000 </r>
       <r>    4.0477    1.0000 </r>
       <r>    4.0680    1.0000 </r>
       <r>    4.0681    1.0000 </r>
       <r>    4.0695    1.0000 </r>
       <r>    4.1191    1.0000 </r>
       <r>    4.1197    1.0000 </r>
       <r>    4.1197    1.0000 </r>
       <r>    4.3672    1.0000 </r>
       <r>    4.3679    1.0000 </r>
       <r>    4.3680    1.0000 </r>
       <r>    4.6354    1.0000 </r>
       <r>    4.6359    1.0000 </r>
       <r>    4.9585    1.0000 </r>
       <r>    4.9591    1.0000 </r>
       <r>    5.9336    0.0000 </r>
       <r>    5.9337    0.0000 </r>
       <r>    5.9340    0.0000 </r>
       <r>    5.9529    0.0000 </r>
       <r>    6.1228    0.0000 </r>
       <r>    6.2203    0.0000 </r>
       <r>    6.2204    0.0000 </r>
       <r>    6.2209    0.0000 </r>
       <r>    6.3085    0.0000 </r>
       <r>    6.3086    0.0000 </r>
       <r>    6.3091    0.0000 </r>
       <r>    6.5319    0.0000 </r>
       <r>    6.5321    0.0000 </r>
       <r>    6.5323    0.0000 </r>
       <r>    6.5425    0.0000 </r>
       <r>    6.5428    0.0000 </r>
       <r>    6.5432    0.0000 </r>
       <r>    6.5598    0.0000 </r>
       <r>    6.5605    0.0000 </r>
       <r>    6.5609    0.0000 </r>
       <r>    6.7107    0.0000 </r>
       <r>    6.7698    0.0000 </r>
       <r>    6.7699    0.0000 </r>
       <r>    6.7704    0.0000 </r>
       <r>    6.7854    0.0000 </r>
       <r>    6.7858    0.0000 </r>
       <r>    6.7861    0.0000 </r>
       <r>    6.8720    0.0000 </r>
       <r>    6.8722    0.0000 </r>
       <r>    6.8723    0.0000 </r>
       <r>    6.8974    0.0000 </r>
       <r>    6.9733    0.0000 </r>
       <r>    6.9736    0.0000 </r>
       <r>    6.9738    0.0000 </r>
       <r>    6.9829    0.0000 </r>
       <r>    6.9832    0.0000 </r>
       <r>    6.9832    0.0000 </r>
       <r>    6.9833    0.0000 </r>
       <r>    6.9841    0.0000 </r>
       <r>    6.9843    0.0000 </r>
       <r>    7.0273    0.0000 </r>
       <r>    7.0274    0.0000 </r>
       <r>    7.0279    0.0000 </r>
       <r>    7.1163    0.0000 </r>
       <r>    7.1166    0.0000 </r>
       <r>    7.1168    0.0000 </r>
       <r>    7.2777    0.0000 </r>
       <r>    7.2784    0.0000 </r>
       <r>    7.2785    0.0000 </r>
       <r>    7.2785    0.0000 </r>
       <r>    7.2793    0.0000 </r>
       <r>    7.2794    0.0000 </r>
       <r>    7.4297    0.0000 </r>
       <r>    7.4299    0.0000 </r>
       <r>    7.4302    0.0000 </r>
       <r>    7.7995    0.0000 </r>
       <r>    7.8003    0.0000 </r>
       <r>    7.8004    0.0000 </r>
       <r>    7.8004    0.0000 </r>
       <r>    7.8011    0.0000 </r>
       <r>    7.8011    0.0000 </r>
       <r>    7.8485    0.0000 </r>
       <r>    7.8489    0.0000 </r>
       <r>    7.8505    0.0000 </r>
       <r>    7.8511    0.0000 </r>
       <r>    7.8515    0.0000 </r>
       <r>    7.8676    0.0000 </r>
       <r>    7.8682    0.0000 </r>
       <r>    7.8683    0.0000 </r>
       <r>    8.0448    0.0000 </r>
       <r>    8.0460    0.0000 </r>
       <r>    8.0460    0.0000 </r>
       <r>    8.1009    0.0000 </r>
       <r>    8.1011    0.0000 </r>
       <r>    8.1011    0.0000 </r>
       <r>    8.1012    0.0000 </r>
       <r>    8.1019    0.0000 </r>
       <r>    8.1020    0.0000 </r>
       <r>    8.1576    0.0000 </r>
       <r>    8.2902    0.0000 </r>
       <r>    8.2907    0.0000 </r>
       <r>    8.3257    0.0000 </r>
       <r>    8.3263    0.0000 </r>
       <r>    8.3264    0.0000 </r>
       <r>    8.4399    0.0000 </r>
       <r>    8.4401    0.0000 </r>
       <r>    8.4403    0.0000 </r>
       <r>    8.5269    0.0000 </r>
       <r>    8.5277    0.0000 </r>
       <r>    8.5278    0.0000 </r>
       <r>    8.6026    0.0000 </r>
       <r>    8.6032    0.0000 </r>
       <r>    8.6034    0.0000 </r>
       <r>    8.6876    0.0000 </r>
       <r>    8.6883    0.0000 </r>
       <r>    8.7042    0.0000 </r>
       <r>    8.7046    0.0000 </r>
       <r>    8.7046    0.0000 </r>
       <r>    8.7047    0.0000 </r>
       <r>    8.7055    0.0000 </r>
       <r>    8.7057    0.0000 </r>
       <r>    8.7328    0.0000 </r>
       <r>    8.7335    0.0000 </r>
       <r>    8.8930    0.0000 </r>
       <r>    8.8935    0.0000 </r>
       <r>    8.8936    0.0000 </r>
       <r>    8.9649    0.0000 </r>
       <r>    8.9655    0.0000 </r>
       <r>    8.9656    0.0000 </r>
       <r>    8.9886    0.0000 </r>
       <r>    8.9893    0.0000 </r>
       <r>    8.9894    0.0000 </r>
       <r>    9.0861    0.0000 </r>
       <r>    9.0866    0.0000 </r>
       <r>    9.0870    0.0000 </r>
       <r>    9.1010    0.0000 </r>
       <r>    9.1010    0.0000 </r>
       <r>    9.1012    0.0000 </r>
       <r>    9.1013    0.0000 </r>
       <r>    9.1021    0.0000 </r>
       <r>    9.1025    0.0000 </r>
       <r>    9.1713    0.0000 </r>
       <r>    9.1718    0.0000 </r>
       <r>    9.1722    0.0000 </r>
       <r>    9.2189    0.0000 </r>
       <r>    9.2196    0.0000 </r>
       <r>    9.2225    0.0000 </r>
       <r>    9.4102    0.0000 </r>
      </set>
      <set comment="kpoint 3">
       <r>  -19.2236    1.0000 </r>
       <r>  -19.2236    1.0000 </r>
       <r>  -19.2236    1.0000 </r>
       <r>  -19.2221    1.0000 </r>
       <r>  -19.2221    1.0000 </r>
       <r>  -19.2221    1.0000 </r>
       <r>  -19.2215    1.0000 </r>
       <r>  -19.2215    1.0000 </r>
       <r>  -19.2214    1.0000 </r>
       <r>  -19.2212    1.0000 </r>
       <r>  -19.2211    1.0000 </r>
       <r>  -19.2211    1.0000 </r>
       <r>  -19.2202    1.0000 </r>
       <r>  -19.2202    1.0000 </r>
       <r>  -19.2201    1.0000 </r>
       <r>  -19.2201    1.0000 </r>
       <r>  -19.2200    1.0000 </r>
       <r>  -19.2200    1.0000 </r>
       <r>  -19.2200    1.0000 </r>
       <r>  -19.2199    1.0000 </r>
       <r>  -19.2199    1.0000 </r>
       <r>  -19.2195    1.0000 </r>
       <r>  -19.2195    1.0000 </r>
       <r>  -19.2194    1.0000 </r>
       <r>  -19.2194    1.0000 </r>
       <r>  -19.2194    1.0000 </r>
       <r>  -19.2193    1.0000 </r>
       <r>  -19.2193    1.0000 </r>
       <r>  -19.2193    1.0000 </r>
       <r>  -19.2192    1.0000 </r>
       <r>  -19.2192    1.0000 </r>
       <r>  -19.2192    1.0000 </r>
       <r>  -19.2192    1.0000 </r>
       <r>  -19.2189    1.0000 </r>
       <r>  -19.2188    1.0000 </r>
       <r>  -19.2188    1.0000 </r>
       <r>  -19.2187    1.0000 </r>
       <r>  -19.2186    1.0000 </r>
       <r>  -19.2186    1.0000 </r>
       <r>  -19.2185    1.0000 </r>
       <r>  -19.2185    1.0000 </r>
       <r>  -19.2184    1.0000 </r>
       <r>  -19.2183    1.0000 </r>
       <r>  -19.2182    1.0000 </r>
       <r>  -19.2182    1.0000 </r>
       <r>  -19.2181    1.0000 </r>
       <r>  -19.2181    1.0000 </r>
       <r>  -19.2181    1.0000 </r>
       <r>  -19.2181    1.0000 </r>
       <r>  -19.2180    1.0000 </r>
       <r>  -19.2180    1.0000 </r>
       <r>  -19.2179    1.0000 </r>
       <r>  -19.2179    1.0000 </r>
       <r>  -19.2179    1.0000 </r>
       <r>  -19.2179    1.0000 </r>
       <r>  -19.2178    1.0000 </r>
       <r>  -19.2178    1.0000 </r>
       <r>  -19.2178    1.0000 </r>
       <r>  -19.2178    1.0000 </r>
       <r>  -19.2178    1.0000 </r>
       <r>  -19.2177    1.0000 </r>
       <r>  -19.2177    1.0000 </r>
       <r>  -19.2176    1.0000 </r>
       <r>  -19.2176    1.0000 </r>
       <r>  -19.2174    1.0000 </r>
       <r>  -19.2173    1.0000 </r>
       <r>  -19.2166    1.0000 </r>
       <r>  -19.2165    1.0000 </r>
       <r>  -19.2155    1.0000 </r>
       <r>  -19.2154    1.0000 </r>
       <r>  -19.2153    1.0000 </r>
       <r>  -19.2152    1.0000 </r>
       <r>  -19.2151    1.0000 </r>
       <r>  -19.2150    1.0000 </r>
       <r>  -19.2149    1.0000 </r>
       <r>  -19.2148    1.0000 </r>
       <r>  -19.2148    1.0000 </r>
       <r>  -19.2145    1.0000 </r>
       <r>  -19.2144    1.0000 </r>
       <r>  -19.2144    1.0000 </r>
       <r>  -19.2143    1.0000 </r>
       <r>  -19.2143    1.0000 </r>
       <r>  -19.2142    1.0000 </r>
       <r>  -19.2141    1.0000 </r>
       <r>  -19.2141    1.0000 </r>
       <r>  -19.2141    1.0000 </r>
       <r>  -19.2140    1.0000 </r>
       <r>  -19.2139    1.0000 </r>
       <r>  -19.2139    1.0000 </r>
       <r>  -19.2137    1.0000 </r>
       <r>  -19.2137    1.0000 </r>
       <r>  -19.2137    1.0000 </r>
       <r>  -19.2136    1.0000 </r>
       <r>  -19.2136    1.0000 </r>
       <r>  -19.2135    1.0000 </r>
       <r>  -19.2135    1.0000 </r>
       <r>  -19.2133    1.0000 </r>
       <r>  -19.2133    1.0000 </r>
       <r>  -19.2132    1.0000 </r>
       <r>  -19.2132    1.0000 </r>
       <r>  -19.2132    1.0000 </r>
       <r>  -19.2132    1.0000 </r>
       <r>  -19.2132    1.0000 </r>
       <r>  -19.2132    1.0000 </r>
       <r>  -19.2131    1.0000 </r>
       <r>  -19.2129    1.0000 </r>
       <r>  -19.2128    1.0000 </r>
       <r>  -19.2128    1.0000 </r>
       <r>  -19.2127    1.0000 </r>
       <r>  -19.2127    1.0000 </r>
       <r>  -19.2126    1.0000 </r>
       <r>  -19.2126    1.0000 </r>
       <r>  -19.2125    1.0000 </r>
       <r>  -19.2125    1.0000 </r>
       <r>  -19.2124    1.0000 </r>
       <r>  -19.2123    1.0000 </r>
       <r>  -19.2123    1.0000 </r>
       <r>  -19.2123    1.0000 </r>
       <r>  -19.2122    1.0000 </r>
       <r>  -19.2122    1.0000 </r>
       <r>  -19.2122    1.0000 </r>
       <r>  -19.2121    1.0000 </r>
       <r>  -19.2121    1.0000 </r>
       <r>  -19.2121    1.0000 </r>
       <r>  -19.2120    1.0000 </r>
       <r>  -19.2120    1.0000 </r>
       <r>  -19.2118    1.0000 </r>
       <r>  -19.2117    1.0000 </r>
       <r>  -19.2117    1.0000 </r>
       <r>  -19.2117    1.0000 </r>
       <r>  -19.2116    1.0000 </r>
       <r>  -19.2116    1.0000 </r>
       <r>  -19.2116    1.0000 </r>
       <r>  -19.2116    1.0000 </r>
       <r>  -19.2116    1.0000 </r>
       <r>  -19.2115    1.0000 </r>
       <r>  -19.2115    1.0000 </r>
       <r>  -19.2115    1.0000 </r>
       <r>  -19.2115    1.0000 </r>
       <r>  -19.2114    1.0000 </r>
       <r>  -19.2114    1.0000 </r>
       <r>  -19.2113    1.0000 </r>
       <r>  -19.2113    1.0000 </r>
       <r>  -19.2113    1.0000 </r>
       <r>  -19.2112    1.0000 </r>
       <r>  -19.2112    1.0000 </r>
       <r>  -19.2112    1.0000 </r>
       <r>  -19.2111    1.0000 </r>
       <r>  -19.2111    1.0000 </r>
       <r>  -19.2111    1.0000 </r>
       <r>  -19.2110    1.0000 </r>
       <r>  -19.2110    1.0000 </r>
       <r>  -19.2109    1.0000 </r>
       <r>  -19.2109    1.0000 </r>
       <r>  -19.2109    1.0000 </r>
       <r>  -19.2108    1.0000 </r>
       <r>  -19.2106    1.0000 </r>
       <r>  -19.2106    1.0000 </r>
       <r>  -19.2106    1.0000 </r>
       <r>  -19.2105    1.0000 </r>
       <r>  -19.2105    1.0000 </r>
       <r>  -19.2104    1.0000 </r>
       <r>  -19.2104    1.0000 </r>
       <r>  -19.2104    1.0000 </r>
       <r>  -19.2102    1.0000 </r>
       <r>  -19.2102    1.0000 </r>
       <r>  -19.2101    1.0000 </r>
       <r>  -19.2100    1.0000 </r>
       <r>  -19.2091    1.0000 </r>
       <r>  -19.2091    1.0000 </r>
       <r>  -19.2091    1.0000 </r>
       <r>  -19.2088    1.0000 </r>
       <r>  -19.2088    1.0000 </r>
       <r>  -19.2088    1.0000 </r>
       <r>  -19.2087    1.0000 </r>
       <r>  -19.2087    1.0000 </r>
       <r>  -19.2087    1.0000 </r>
       <r>  -19.2086    1.0000 </r>
       <r>  -19.2085    1.0000 </r>
       <r>  -19.2085    1.0000 </r>
       <r>  -19.2077    1.0000 </r>
       <r>  -19.2077    1.0000 </r>
       <r>  -19.2077    1.0000 </r>
       <r>  -19.2076    1.0000 </r>
       <r>  -19.2076    1.0000 </r>
       <r>  -19.2076    1.0000 </r>
       <r>  -19.2076    1.0000 </r>
       <r>  -19.2076    1.0000 </r>
       <r>  -19.2076    1.0000 </r>
       <r>  -19.2075    1.0000 </r>
       <r>  -19.2075    1.0000 </r>
       <r>  -19.2075    1.0000 </r>
       <r>  -19.1961    1.0000 </r>
       <r>  -19.1961    1.0000 </r>
       <r>  -19.1960    1.0000 </r>
       <r>  -19.1954    1.0000 </r>
       <r>  -19.1953    1.0000 </r>
       <r>  -19.1952    1.0000 </r>
       <r>  -19.1948    1.0000 </r>
       <r>  -19.1948    1.0000 </r>
       <r>  -19.1946    1.0000 </r>
       <r>  -19.1946    1.0000 </r>
       <r>  -19.1945    1.0000 </r>
       <r>  -19.1945    1.0000 </r>
       <r>  -19.1944    1.0000 </r>
       <r>  -19.1944    1.0000 </r>
       <r>  -19.1943    1.0000 </r>
       <r>  -19.1943    1.0000 </r>
       <r>  -19.1942    1.0000 </r>
       <r>  -19.1942    1.0000 </r>
       <r>  -19.1941    1.0000 </r>
       <r>  -19.1941    1.0000 </r>
       <r>  -19.1940    1.0000 </r>
       <r>  -19.1940    1.0000 </r>
       <r>  -19.1939    1.0000 </r>
       <r>  -19.1939    1.0000 </r>
       <r>  -19.1938    1.0000 </r>
       <r>  -19.1937    1.0000 </r>
       <r>  -19.1937    1.0000 </r>
       <r>  -19.1935    1.0000 </r>
       <r>  -19.1935    1.0000 </r>
       <r>  -19.1934    1.0000 </r>
       <r>  -19.1934    1.0000 </r>
       <r>  -19.1933    1.0000 </r>
       <r>  -19.1933    1.0000 </r>
       <r>  -19.1932    1.0000 </r>
       <r>  -19.1931    1.0000 </r>
       <r>  -19.1930    1.0000 </r>
       <r>  -19.1930    1.0000 </r>
       <r>  -19.1930    1.0000 </r>
       <r>  -19.1929    1.0000 </r>
       <r>  -19.1928    1.0000 </r>
       <r>  -19.1928    1.0000 </r>
       <r>  -19.1927    1.0000 </r>
       <r>  -19.1927    1.0000 </r>
       <r>  -19.1927    1.0000 </r>
       <r>  -19.1926    1.0000 </r>
       <r>  -19.1926    1.0000 </r>
       <r>  -19.1925    1.0000 </r>
       <r>  -19.1925    1.0000 </r>
       <r>  -19.1925    1.0000 </r>
       <r>  -19.1924    1.0000 </r>
       <r>  -19.1924    1.0000 </r>
       <r>  -19.1924    1.0000 </r>
       <r>  -19.1923    1.0000 </r>
       <r>  -19.1923    1.0000 </r>
       <r>  -19.1922    1.0000 </r>
       <r>  -19.1922    1.0000 </r>
       <r>  -19.1921    1.0000 </r>
       <r>  -19.1921    1.0000 </r>
       <r>  -19.1921    1.0000 </r>
       <r>  -19.1920    1.0000 </r>
       <r>  -19.1920    1.0000 </r>
       <r>  -19.1917    1.0000 </r>
       <r>  -19.1917    1.0000 </r>
       <r>  -19.1916    1.0000 </r>
       <r>  -19.1916    1.0000 </r>
       <r>  -19.1916    1.0000 </r>
       <r>  -19.1915    1.0000 </r>
       <r>  -19.1915    1.0000 </r>
       <r>  -19.1914    1.0000 </r>
       <r>  -19.1914    1.0000 </r>
       <r>  -19.1914    1.0000 </r>
       <r>  -19.1913    1.0000 </r>
       <r>  -19.1913    1.0000 </r>
       <r>  -19.1913    1.0000 </r>
       <r>  -19.1913    1.0000 </r>
       <r>  -19.1912    1.0000 </r>
       <r>  -19.1912    1.0000 </r>
       <r>  -19.1912    1.0000 </r>
       <r>  -19.1911    1.0000 </r>
       <r>  -19.1911    1.0000 </r>
       <r>  -19.1910    1.0000 </r>
       <r>  -19.1909    1.0000 </r>
       <r>  -19.1909    1.0000 </r>
       <r>  -19.1909    1.0000 </r>
       <r>  -19.1908    1.0000 </r>
       <r>  -19.1908    1.0000 </r>
       <r>  -19.1908    1.0000 </r>
       <r>  -19.1908    1.0000 </r>
       <r>  -19.1907    1.0000 </r>
       <r>  -19.1907    1.0000 </r>
       <r>  -19.1906    1.0000 </r>
       <r>  -19.1906    1.0000 </r>
       <r>  -19.1905    1.0000 </r>
       <r>  -19.1905    1.0000 </r>
       <r>  -19.1904    1.0000 </r>
       <r>  -19.1904    1.0000 </r>
       <r>  -19.1903    1.0000 </r>
       <r>  -19.1902    1.0000 </r>
       <r>  -19.1902    1.0000 </r>
       <r>  -19.1901    1.0000 </r>
       <r>  -19.1901    1.0000 </r>
       <r>  -19.1901    1.0000 </r>
       <r>  -19.1900    1.0000 </r>
       <r>  -19.1900    1.0000 </r>
       <r>  -19.1899    1.0000 </r>
       <r>  -19.1899    1.0000 </r>
       <r>  -19.1899    1.0000 </r>
       <r>  -19.1899    1.0000 </r>
       <r>  -19.1898    1.0000 </r>
       <r>  -19.1898    1.0000 </r>
       <r>  -19.1897    1.0000 </r>
       <r>  -19.1897    1.0000 </r>
       <r>  -19.1897    1.0000 </r>
       <r>  -19.1896    1.0000 </r>
       <r>  -19.1896    1.0000 </r>
       <r>  -19.1895    1.0000 </r>
       <r>  -19.1894    1.0000 </r>
       <r>  -19.1894    1.0000 </r>
       <r>  -19.1893    1.0000 </r>
       <r>  -19.1893    1.0000 </r>
       <r>  -19.1891    1.0000 </r>
       <r>  -19.1891    1.0000 </r>
       <r>  -19.1887    1.0000 </r>
       <r>  -19.1887    1.0000 </r>
       <r>  -19.1886    1.0000 </r>
       <r>  -19.1881    1.0000 </r>
       <r>  -19.1881    1.0000 </r>
       <r>  -19.1880    1.0000 </r>
       <r>   -6.9934    1.0000 </r>
       <r>   -6.7411    1.0000 </r>
       <r>   -6.4108    1.0000 </r>
       <r>   -6.4103    1.0000 </r>
       <r>   -6.4099    1.0000 </r>
       <r>   -6.3211    1.0000 </r>
       <r>   -6.3206    1.0000 </r>
       <r>   -6.3202    1.0000 </r>
       <r>   -6.0952    1.0000 </r>
       <r>   -6.0947    1.0000 </r>
       <r>   -6.0943    1.0000 </r>
       <r>   -5.8049    1.0000 </r>
       <r>   -5.7048    1.0000 </r>
       <r>   -5.7043    1.0000 </r>
       <r>   -5.7039    1.0000 </r>
       <r>   -5.6626    1.0000 </r>
       <r>   -5.6622    1.0000 </r>
       <r>   -5.6617    1.0000 </r>
       <r>   -5.2545    1.0000 </r>
       <r>   -5.1367    1.0000 </r>
       <r>   -5.1361    1.0000 </r>
       <r>   -5.1357    1.0000 </r>
       <r>   -5.1224    1.0000 </r>
       <r>   -5.1214    1.0000 </r>
       <r>   -5.1214    1.0000 </r>
       <r>   -5.1213    1.0000 </r>
       <r>   -5.1213    1.0000 </r>
       <r>   -5.1203    1.0000 </r>
       <r>   -4.9353    1.0000 </r>
       <r>   -4.9349    1.0000 </r>
       <r>   -4.9344    1.0000 </r>
       <r>   -4.9159    1.0000 </r>
       <r>   -4.9149    1.0000 </r>
       <r>   -4.9148    1.0000 </r>
       <r>   -4.9148    1.0000 </r>
       <r>   -4.9148    1.0000 </r>
       <r>   -4.9137    1.0000 </r>
       <r>   -4.8103    1.0000 </r>
       <r>   -4.8098    1.0000 </r>
       <r>   -4.8094    1.0000 </r>
       <r>   -4.6417    1.0000 </r>
       <r>   -4.6412    1.0000 </r>
       <r>   -4.6408    1.0000 </r>
       <r>   -4.3251    1.0000 </r>
       <r>   -4.3247    1.0000 </r>
       <r>   -4.3242    1.0000 </r>
       <r>   -4.2602    1.0000 </r>
       <r>   -4.2597    1.0000 </r>
       <r>   -4.2592    1.0000 </r>
       <r>   -4.1698    1.0000 </r>
       <r>   -4.1689    1.0000 </r>
       <r>   -4.1689    1.0000 </r>
       <r>   -4.1688    1.0000 </r>
       <r>   -4.1688    1.0000 </r>
       <r>   -4.1679    1.0000 </r>
       <r>   -3.8502    1.0000 </r>
       <r>   -3.8498    1.0000 </r>
       <r>   -3.8493    1.0000 </r>
       <r>   -3.7272    1.0000 </r>
       <r>   -3.7266    1.0000 </r>
       <r>   -3.7265    1.0000 </r>
       <r>   -3.7265    1.0000 </r>
       <r>   -3.7264    1.0000 </r>
       <r>   -3.7257    1.0000 </r>
       <r>   -2.3912    1.0000 </r>
       <r>   -2.3905    1.0000 </r>
       <r>   -2.3899    1.0000 </r>
       <r>   -2.3663    1.0000 </r>
       <r>   -2.3652    1.0000 </r>
       <r>   -2.3652    1.0000 </r>
       <r>   -2.3651    1.0000 </r>
       <r>   -2.3651    1.0000 </r>
       <r>   -2.3640    1.0000 </r>
       <r>   -1.9965    1.0000 </r>
       <r>   -1.9952    1.0000 </r>
       <r>   -1.9952    1.0000 </r>
       <r>   -1.9952    1.0000 </r>
       <r>   -1.9951    1.0000 </r>
       <r>   -1.9939    1.0000 </r>
       <r>   -1.9771    1.0000 </r>
       <r>   -1.9769    1.0000 </r>
       <r>   -1.9768    1.0000 </r>
       <r>   -1.9107    1.0000 </r>
       <r>   -1.9100    1.0000 </r>
       <r>   -1.9094    1.0000 </r>
       <r>   -1.8794    1.0000 </r>
       <r>   -1.8787    1.0000 </r>
       <r>   -1.8781    1.0000 </r>
       <r>   -1.7285    1.0000 </r>
       <r>   -1.7279    1.0000 </r>
       <r>   -1.7272    1.0000 </r>
       <r>   -1.5516    1.0000 </r>
       <r>   -1.5514    1.0000 </r>
       <r>   -1.5512    1.0000 </r>
       <r>   -1.5382    1.0000 </r>
       <r>   -1.2757    1.0000 </r>
       <r>   -1.2745    1.0000 </r>
       <r>   -1.2743    1.0000 </r>
       <r>   -1.2743    1.0000 </r>
       <r>   -1.2742    1.0000 </r>
       <r>   -1.2730    1.0000 </r>
       <r>   -0.9496    1.0000 </r>
       <r>   -0.9483    1.0000 </r>
       <r>   -0.9482    1.0000 </r>
       <r>   -0.9482    1.0000 </r>
       <r>   -0.9481    1.0000 </r>
       <r>   -0.9468    1.0000 </r>
       <r>   -0.8020    1.0000 </r>
       <r>   -0.8016    1.0000 </r>
       <r>   -0.8013    1.0000 </r>
       <r>   -0.4812    1.0000 </r>
       <r>   -0.1329    1.0000 </r>
       <r>   -0.1325    1.0000 </r>
       <r>   -0.1320    1.0000 </r>
       <r>    0.1553    1.0000 </r>
       <r>    0.1558    1.0000 </r>
       <r>    0.1562    1.0000 </r>
       <r>    0.3873    1.0000 </r>
       <r>    0.3878    1.0000 </r>
       <r>    0.3883    1.0000 </r>
       <r>    1.1235    1.0000 </r>
       <r>    1.1236    1.0000 </r>
       <r>    1.1239    1.0000 </r>
       <r>    1.1240    1.0000 </r>
       <r>    1.1243    1.0000 </r>
       <r>    1.1244    1.0000 </r>
       <r>    1.1410    1.0000 </r>
       <r>    1.1412    1.0000 </r>
       <r>    1.1415    1.0000 </r>
       <r>    1.2222    1.0000 </r>
       <r>    1.2223    1.0000 </r>
       <r>    1.2227    1.0000 </r>
       <r>    1.2228    1.0000 </r>
       <r>    1.2231    1.0000 </r>
       <r>    1.2232    1.0000 </r>
       <r>    1.2320    1.0000 </r>
       <r>    1.2323    1.0000 </r>
       <r>    1.2327    1.0000 </r>
       <r>    1.3282    1.0000 </r>
       <r>    1.3288    1.0000 </r>
       <r>    1.3293    1.0000 </r>
       <r>    1.4962    1.0000 </r>
       <r>    1.4967    1.0000 </r>
       <r>    1.4973    1.0000 </r>
       <r>    1.5358    1.0000 </r>
       <r>    1.5361    1.0000 </r>
       <r>    1.5363    1.0000 </r>
       <r>    1.6063    1.0000 </r>
       <r>    1.6066    1.0000 </r>
       <r>    1.6069    1.0000 </r>
       <r>    1.6070    1.0000 </r>
       <r>    1.6073    1.0000 </r>
       <r>    1.6075    1.0000 </r>
       <r>    1.8445    1.0000 </r>
       <r>    1.8447    1.0000 </r>
       <r>    1.8451    1.0000 </r>
       <r>    1.8452    1.0000 </r>
       <r>    1.8456    1.0000 </r>
       <r>    1.8458    1.0000 </r>
       <r>    1.8637    1.0000 </r>
       <r>    1.8641    1.0000 </r>
       <r>    1.8643    1.0000 </r>
       <r>    1.8644    1.0000 </r>
       <r>    1.8647    1.0000 </r>
       <r>    1.8651    1.0000 </r>
       <r>    1.9430    1.0000 </r>
       <r>    1.9433    1.0000 </r>
       <r>    1.9436    1.0000 </r>
       <r>    2.1113    1.0000 </r>
       <r>    2.1118    1.0000 </r>
       <r>    2.1122    1.0000 </r>
       <r>    2.1886    1.0000 </r>
       <r>    2.1890    1.0000 </r>
       <r>    2.1894    1.0000 </r>
       <r>    2.2268    1.0000 </r>
       <r>    2.2272    1.0000 </r>
       <r>    2.2275    1.0000 </r>
       <r>    2.2966    1.0000 </r>
       <r>    2.2969    1.0000 </r>
       <r>    2.2972    1.0000 </r>
       <r>    2.4089    1.0000 </r>
       <r>    2.4849    1.0000 </r>
       <r>    2.4854    1.0000 </r>
       <r>    2.4856    1.0000 </r>
       <r>    2.4857    1.0000 </r>
       <r>    2.4859    1.0000 </r>
       <r>    2.4864    1.0000 </r>
       <r>    2.5182    1.0000 </r>
       <r>    2.5185    1.0000 </r>
       <r>    2.5188    1.0000 </r>
       <r>    2.7326    1.0000 </r>
       <r>    2.7330    1.0000 </r>
       <r>    2.7335    1.0000 </r>
       <r>    2.8319    1.0000 </r>
       <r>    2.8323    1.0000 </r>
       <r>    2.8327    1.0000 </r>
       <r>    2.9465    1.0000 </r>
       <r>    2.9469    1.0000 </r>
       <r>    2.9473    1.0000 </r>
       <r>    2.9621    1.0000 </r>
       <r>    2.9623    1.0000 </r>
       <r>    2.9626    1.0000 </r>
       <r>    2.9626    1.0000 </r>
       <r>    2.9629    1.0000 </r>
       <r>    2.9631    1.0000 </r>
       <r>    3.0375    1.0000 </r>
       <r>    3.0379    1.0000 </r>
       <r>    3.0384    1.0000 </r>
       <r>    3.1927    1.0000 </r>
       <r>    3.1930    1.0000 </r>
       <r>    3.1933    1.0000 </r>
       <r>    3.2819    1.0000 </r>
       <r>    3.2822    1.0000 </r>
       <r>    3.2825    1.0000 </r>
       <r>    3.3372    1.0000 </r>
       <r>    3.3377    1.0000 </r>
       <r>    3.3382    1.0000 </r>
       <r>    3.3445    1.0000 </r>
       <r>    3.3449    1.0000 </r>
       <r>    3.3453    1.0000 </r>
       <r>    3.4114    1.0000 </r>
       <r>    3.4117    1.0000 </r>
       <r>    3.4121    1.0000 </r>
       <r>    3.4121    1.0000 </r>
       <r>    3.4124    1.0000 </r>
       <r>    3.4128    1.0000 </r>
       <r>    3.5033    1.0000 </r>
       <r>    3.5033    1.0000 </r>
       <r>    3.5034    1.0000 </r>
       <r>    3.5629    1.0000 </r>
       <r>    3.5633    1.0000 </r>
       <r>    3.5638    1.0000 </r>
       <r>    3.6647    1.0000 </r>
       <r>    3.6651    1.0000 </r>
       <r>    3.6655    1.0000 </r>
       <r>    3.8854    1.0000 </r>
       <r>    3.8864    1.0000 </r>
       <r>    3.9760    1.0000 </r>
       <r>    3.9764    1.0000 </r>
       <r>    3.9769    1.0000 </r>
       <r>    4.0025    1.0000 </r>
       <r>    4.0471    1.0000 </r>
       <r>    4.0480    1.0000 </r>
       <r>    4.0678    1.0000 </r>
       <r>    4.0680    1.0000 </r>
       <r>    4.0682    1.0000 </r>
       <r>    4.1192    1.0000 </r>
       <r>    4.1198    1.0000 </r>
       <r>    4.1203    1.0000 </r>
       <r>    4.3675    1.0000 </r>
       <r>    4.3680    1.0000 </r>
       <r>    4.3686    1.0000 </r>
       <r>    4.6354    1.0000 </r>
       <r>    4.6364    1.0000 </r>
       <r>    4.9585    1.0000 </r>
       <r>    4.9597    1.0000 </r>
       <r>    5.9336    0.0000 </r>
       <r>    5.9339    0.0000 </r>
       <r>    5.9342    0.0000 </r>
       <r>    5.9532    0.0000 </r>
       <r>    6.1230    0.0000 </r>
       <r>    6.2203    0.0000 </r>
       <r>    6.2207    0.0000 </r>
       <r>    6.2211    0.0000 </r>
       <r>    6.3082    0.0000 </r>
       <r>    6.3087    0.0000 </r>
       <r>    6.3092    0.0000 </r>
       <r>    6.5317    0.0000 </r>
       <r>    6.5320    0.0000 </r>
       <r>    6.5323    0.0000 </r>
       <r>    6.5424    0.0000 </r>
       <r>    6.5430    0.0000 </r>
       <r>    6.5436    0.0000 </r>
       <r>    6.5597    0.0000 </r>
       <r>    6.5603    0.0000 </r>
       <r>    6.5609    0.0000 </r>
       <r>    6.7110    0.0000 </r>
       <r>    6.7697    0.0000 </r>
       <r>    6.7702    0.0000 </r>
       <r>    6.7708    0.0000 </r>
       <r>    6.7854    0.0000 </r>
       <r>    6.7859    0.0000 </r>
       <r>    6.7863    0.0000 </r>
       <r>    6.8718    0.0000 </r>
       <r>    6.8720    0.0000 </r>
       <r>    6.8723    0.0000 </r>
       <r>    6.8976    0.0000 </r>
       <r>    6.9732    0.0000 </r>
       <r>    6.9737    0.0000 </r>
       <r>    6.9741    0.0000 </r>
       <r>    6.9825    0.0000 </r>
       <r>    6.9831    0.0000 </r>
       <r>    6.9832    0.0000 </r>
       <r>    6.9833    0.0000 </r>
       <r>    6.9835    0.0000 </r>
       <r>    6.9841    0.0000 </r>
       <r>    7.0272    0.0000 </r>
       <r>    7.0278    0.0000 </r>
       <r>    7.0283    0.0000 </r>
       <r>    7.1161    0.0000 </r>
       <r>    7.1164    0.0000 </r>
       <r>    7.1168    0.0000 </r>
       <r>    7.2776    0.0000 </r>
       <r>    7.2784    0.0000 </r>
       <r>    7.2785    0.0000 </r>
       <r>    7.2786    0.0000 </r>
       <r>    7.2787    0.0000 </r>
       <r>    7.2795    0.0000 </r>
       <r>    7.4295    0.0000 </r>
       <r>    7.4300    0.0000 </r>
       <r>    7.4305    0.0000 </r>
       <r>    7.7996    0.0000 </r>
       <r>    7.8003    0.0000 </r>
       <r>    7.8004    0.0000 </r>
       <r>    7.8004    0.0000 </r>
       <r>    7.8005    0.0000 </r>
       <r>    7.8012    0.0000 </r>
       <r>    7.8482    0.0000 </r>
       <r>    7.8490    0.0000 </r>
       <r>    7.8503    0.0000 </r>
       <r>    7.8509    0.0000 </r>
       <r>    7.8514    0.0000 </r>
       <r>    7.8677    0.0000 </r>
       <r>    7.8679    0.0000 </r>
       <r>    7.8682    0.0000 </r>
       <r>    8.0456    0.0000 </r>
       <r>    8.0460    0.0000 </r>
       <r>    8.0464    0.0000 </r>
       <r>    8.1004    0.0000 </r>
       <r>    8.1010    0.0000 </r>
       <r>    8.1011    0.0000 </r>
       <r>    8.1012    0.0000 </r>
       <r>    8.1014    0.0000 </r>
       <r>    8.1020    0.0000 </r>
       <r>    8.1577    0.0000 </r>
       <r>    8.2900    0.0000 </r>
       <r>    8.2908    0.0000 </r>
       <r>    8.3256    0.0000 </r>
       <r>    8.3259    0.0000 </r>
       <r>    8.3262    0.0000 </r>
       <r>    8.4400    0.0000 </r>
       <r>    8.4402    0.0000 </r>
       <r>    8.4404    0.0000 </r>
       <r>    8.5274    0.0000 </r>
       <r>    8.5278    0.0000 </r>
       <r>    8.5282    0.0000 </r>
       <r>    8.6024    0.0000 </r>
       <r>    8.6026    0.0000 </r>
       <r>    8.6028    0.0000 </r>
       <r>    8.6875    0.0000 </r>
       <r>    8.6887    0.0000 </r>
       <r>    8.7037    0.0000 </r>
       <r>    8.7045    0.0000 </r>
       <r>    8.7046    0.0000 </r>
       <r>    8.7047    0.0000 </r>
       <r>    8.7047    0.0000 </r>
       <r>    8.7056    0.0000 </r>
       <r>    8.7327    0.0000 </r>
       <r>    8.7339    0.0000 </r>
       <r>    8.8933    0.0000 </r>
       <r>    8.8937    0.0000 </r>
       <r>    8.8940    0.0000 </r>
       <r>    8.9650    0.0000 </r>
       <r>    8.9654    0.0000 </r>
       <r>    8.9659    0.0000 </r>
       <r>    8.9886    0.0000 </r>
       <r>    8.9886    0.0000 </r>
       <r>    8.9886    0.0000 </r>
       <r>    9.0858    0.0000 </r>
       <r>    9.0862    0.0000 </r>
       <r>    9.0865    0.0000 </r>
       <r>    9.1006    0.0000 </r>
       <r>    9.1010    0.0000 </r>
       <r>    9.1011    0.0000 </r>
       <r>    9.1013    0.0000 </r>
       <r>    9.1014    0.0000 </r>
       <r>    9.1019    0.0000 </r>
       <r>    9.1711    0.0000 </r>
       <r>    9.1714    0.0000 </r>
       <r>    9.1723    0.0000 </r>
       <r>    9.2189    0.0000 </r>
       <r>    9.2203    0.0000 </r>
       <r>    9.2242    0.0000 </r>
       <r>    9.4131    0.0000 </r>
      </set>
      <set comment="kpoint 4">
       <r>  -19.2236    1.0000 </r>
       <r>  -19.2236    1.0000 </r>
       <r>  -19.2236    1.0000 </r>
       <r>  -19.2221    1.0000 </r>
       <r>  -19.2221    1.0000 </r>
       <r>  -19.2220    1.0000 </r>
       <r>  -19.2215    1.0000 </r>
       <r>  -19.2215    1.0000 </r>
       <r>  -19.2214    1.0000 </r>
       <r>  -19.2212    1.0000 </r>
       <r>  -19.2211    1.0000 </r>
       <r>  -19.2211    1.0000 </r>
       <r>  -19.2202    1.0000 </r>
       <r>  -19.2202    1.0000 </r>
       <r>  -19.2201    1.0000 </r>
       <r>  -19.2201    1.0000 </r>
       <r>  -19.2200    1.0000 </r>
       <r>  -19.2200    1.0000 </r>
       <r>  -19.2200    1.0000 </r>
       <r>  -19.2199    1.0000 </r>
       <r>  -19.2199    1.0000 </r>
       <r>  -19.2196    1.0000 </r>
       <r>  -19.2195    1.0000 </r>
       <r>  -19.2195    1.0000 </r>
       <r>  -19.2194    1.0000 </r>
       <r>  -19.2194    1.0000 </r>
       <r>  -19.2194    1.0000 </r>
       <r>  -19.2193    1.0000 </r>
       <r>  -19.2193    1.0000 </r>
       <r>  -19.2192    1.0000 </r>
       <r>  -19.2192    1.0000 </r>
       <r>  -19.2191    1.0000 </r>
       <r>  -19.2190    1.0000 </r>
       <r>  -19.2189    1.0000 </r>
       <r>  -19.2188    1.0000 </r>
       <r>  -19.2188    1.0000 </r>
       <r>  -19.2186    1.0000 </r>
       <r>  -19.2186    1.0000 </r>
       <r>  -19.2185    1.0000 </r>
       <r>  -19.2185    1.0000 </r>
       <r>  -19.2185    1.0000 </r>
       <r>  -19.2184    1.0000 </r>
       <r>  -19.2183    1.0000 </r>
       <r>  -19.2182    1.0000 </r>
       <r>  -19.2182    1.0000 </r>
       <r>  -19.2182    1.0000 </r>
       <r>  -19.2182    1.0000 </r>
       <r>  -19.2181    1.0000 </r>
       <r>  -19.2181    1.0000 </r>
       <r>  -19.2180    1.0000 </r>
       <r>  -19.2180    1.0000 </r>
       <r>  -19.2180    1.0000 </r>
       <r>  -19.2180    1.0000 </r>
       <r>  -19.2179    1.0000 </r>
       <r>  -19.2178    1.0000 </r>
       <r>  -19.2178    1.0000 </r>
       <r>  -19.2178    1.0000 </r>
       <r>  -19.2178    1.0000 </r>
       <r>  -19.2178    1.0000 </r>
       <r>  -19.2177    1.0000 </r>
       <r>  -19.2177    1.0000 </r>
       <r>  -19.2177    1.0000 </r>
       <r>  -19.2176    1.0000 </r>
       <r>  -19.2176    1.0000 </r>
       <r>  -19.2174    1.0000 </r>
       <r>  -19.2173    1.0000 </r>
       <r>  -19.2166    1.0000 </r>
       <r>  -19.2165    1.0000 </r>
       <r>  -19.2154    1.0000 </r>
       <r>  -19.2154    1.0000 </r>
       <r>  -19.2152    1.0000 </r>
       <r>  -19.2152    1.0000 </r>
       <r>  -19.2150    1.0000 </r>
       <r>  -19.2150    1.0000 </r>
       <r>  -19.2149    1.0000 </r>
       <r>  -19.2149    1.0000 </r>
       <r>  -19.2148    1.0000 </r>
       <r>  -19.2144    1.0000 </r>
       <r>  -19.2144    1.0000 </r>
       <r>  -19.2144    1.0000 </r>
       <r>  -19.2143    1.0000 </r>
       <r>  -19.2143    1.0000 </r>
       <r>  -19.2142    1.0000 </r>
       <r>  -19.2141    1.0000 </r>
       <r>  -19.2140    1.0000 </r>
       <r>  -19.2140    1.0000 </r>
       <r>  -19.2139    1.0000 </r>
       <r>  -19.2139    1.0000 </r>
       <r>  -19.2138    1.0000 </r>
       <r>  -19.2138    1.0000 </r>
       <r>  -19.2137    1.0000 </r>
       <r>  -19.2137    1.0000 </r>
       <r>  -19.2136    1.0000 </r>
       <r>  -19.2136    1.0000 </r>
       <r>  -19.2135    1.0000 </r>
       <r>  -19.2134    1.0000 </r>
       <r>  -19.2133    1.0000 </r>
       <r>  -19.2133    1.0000 </r>
       <r>  -19.2133    1.0000 </r>
       <r>  -19.2132    1.0000 </r>
       <r>  -19.2132    1.0000 </r>
       <r>  -19.2132    1.0000 </r>
       <r>  -19.2132    1.0000 </r>
       <r>  -19.2132    1.0000 </r>
       <r>  -19.2132    1.0000 </r>
       <r>  -19.2129    1.0000 </r>
       <r>  -19.2128    1.0000 </r>
       <r>  -19.2128    1.0000 </r>
       <r>  -19.2127    1.0000 </r>
       <r>  -19.2126    1.0000 </r>
       <r>  -19.2126    1.0000 </r>
       <r>  -19.2126    1.0000 </r>
       <r>  -19.2125    1.0000 </r>
       <r>  -19.2125    1.0000 </r>
       <r>  -19.2124    1.0000 </r>
       <r>  -19.2123    1.0000 </r>
       <r>  -19.2123    1.0000 </r>
       <r>  -19.2123    1.0000 </r>
       <r>  -19.2122    1.0000 </r>
       <r>  -19.2122    1.0000 </r>
       <r>  -19.2122    1.0000 </r>
       <r>  -19.2122    1.0000 </r>
       <r>  -19.2121    1.0000 </r>
       <r>  -19.2121    1.0000 </r>
       <r>  -19.2120    1.0000 </r>
       <r>  -19.2120    1.0000 </r>
       <r>  -19.2118    1.0000 </r>
       <r>  -19.2118    1.0000 </r>
       <r>  -19.2117    1.0000 </r>
       <r>  -19.2117    1.0000 </r>
       <r>  -19.2116    1.0000 </r>
       <r>  -19.2116    1.0000 </r>
       <r>  -19.2116    1.0000 </r>
       <r>  -19.2116    1.0000 </r>
       <r>  -19.2116    1.0000 </r>
       <r>  -19.2116    1.0000 </r>
       <r>  -19.2115    1.0000 </r>
       <r>  -19.2115    1.0000 </r>
       <r>  -19.2114    1.0000 </r>
       <r>  -19.2114    1.0000 </r>
       <r>  -19.2114    1.0000 </r>
       <r>  -19.2113    1.0000 </r>
       <r>  -19.2113    1.0000 </r>
       <r>  -19.2113    1.0000 </r>
       <r>  -19.2112    1.0000 </r>
       <r>  -19.2112    1.0000 </r>
       <r>  -19.2111    1.0000 </r>
       <r>  -19.2111    1.0000 </r>
       <r>  -19.2111    1.0000 </r>
       <r>  -19.2110    1.0000 </r>
       <r>  -19.2110    1.0000 </r>
       <r>  -19.2110    1.0000 </r>
       <r>  -19.2109    1.0000 </r>
       <r>  -19.2109    1.0000 </r>
       <r>  -19.2109    1.0000 </r>
       <r>  -19.2108    1.0000 </r>
       <r>  -19.2106    1.0000 </r>
       <r>  -19.2106    1.0000 </r>
       <r>  -19.2105    1.0000 </r>
       <r>  -19.2105    1.0000 </r>
       <r>  -19.2105    1.0000 </r>
       <r>  -19.2105    1.0000 </r>
       <r>  -19.2104    1.0000 </r>
       <r>  -19.2102    1.0000 </r>
       <r>  -19.2102    1.0000 </r>
       <r>  -19.2102    1.0000 </r>
       <r>  -19.2101    1.0000 </r>
       <r>  -19.2100    1.0000 </r>
       <r>  -19.2092    1.0000 </r>
       <r>  -19.2091    1.0000 </r>
       <r>  -19.2091    1.0000 </r>
       <r>  -19.2088    1.0000 </r>
       <r>  -19.2088    1.0000 </r>
       <r>  -19.2088    1.0000 </r>
       <r>  -19.2088    1.0000 </r>
       <r>  -19.2087    1.0000 </r>
       <r>  -19.2087    1.0000 </r>
       <r>  -19.2086    1.0000 </r>
       <r>  -19.2086    1.0000 </r>
       <r>  -19.2086    1.0000 </r>
       <r>  -19.2077    1.0000 </r>
       <r>  -19.2077    1.0000 </r>
       <r>  -19.2077    1.0000 </r>
       <r>  -19.2076    1.0000 </r>
       <r>  -19.2076    1.0000 </r>
       <r>  -19.2076    1.0000 </r>
       <r>  -19.2076    1.0000 </r>
       <r>  -19.2076    1.0000 </r>
       <r>  -19.2075    1.0000 </r>
       <r>  -19.2075    1.0000 </r>
       <r>  -19.2075    1.0000 </r>
       <r>  -19.2074    1.0000 </r>
       <r>  -19.1961    1.0000 </r>
       <r>  -19.1961    1.0000 </r>
       <r>  -19.1961    1.0000 </r>
       <r>  -19.1953    1.0000 </r>
       <r>  -19.1953    1.0000 </r>
       <r>  -19.1952    1.0000 </r>
       <r>  -19.1947    1.0000 </r>
       <r>  -19.1947    1.0000 </r>
       <r>  -19.1947    1.0000 </r>
       <r>  -19.1946    1.0000 </r>
       <r>  -19.1946    1.0000 </r>
       <r>  -19.1945    1.0000 </r>
       <r>  -19.1944    1.0000 </r>
       <r>  -19.1943    1.0000 </r>
       <r>  -19.1943    1.0000 </r>
       <r>  -19.1942    1.0000 </r>
       <r>  -19.1942    1.0000 </r>
       <r>  -19.1942    1.0000 </r>
       <r>  -19.1942    1.0000 </r>
       <r>  -19.1941    1.0000 </r>
       <r>  -19.1940    1.0000 </r>
       <r>  -19.1940    1.0000 </r>
       <r>  -19.1940    1.0000 </r>
       <r>  -19.1940    1.0000 </r>
       <r>  -19.1938    1.0000 </r>
       <r>  -19.1937    1.0000 </r>
       <r>  -19.1935    1.0000 </r>
       <r>  -19.1935    1.0000 </r>
       <r>  -19.1935    1.0000 </r>
       <r>  -19.1934    1.0000 </r>
       <r>  -19.1934    1.0000 </r>
       <r>  -19.1933    1.0000 </r>
       <r>  -19.1932    1.0000 </r>
       <r>  -19.1932    1.0000 </r>
       <r>  -19.1932    1.0000 </r>
       <r>  -19.1931    1.0000 </r>
       <r>  -19.1929    1.0000 </r>
       <r>  -19.1929    1.0000 </r>
       <r>  -19.1928    1.0000 </r>
       <r>  -19.1928    1.0000 </r>
       <r>  -19.1927    1.0000 </r>
       <r>  -19.1927    1.0000 </r>
       <r>  -19.1927    1.0000 </r>
       <r>  -19.1926    1.0000 </r>
       <r>  -19.1926    1.0000 </r>
       <r>  -19.1926    1.0000 </r>
       <r>  -19.1925    1.0000 </r>
       <r>  -19.1925    1.0000 </r>
       <r>  -19.1925    1.0000 </r>
       <r>  -19.1924    1.0000 </r>
       <r>  -19.1924    1.0000 </r>
       <r>  -19.1923    1.0000 </r>
       <r>  -19.1923    1.0000 </r>
       <r>  -19.1923    1.0000 </r>
       <r>  -19.1923    1.0000 </r>
       <r>  -19.1922    1.0000 </r>
       <r>  -19.1922    1.0000 </r>
       <r>  -19.1922    1.0000 </r>
       <r>  -19.1922    1.0000 </r>
       <r>  -19.1920    1.0000 </r>
       <r>  -19.1920    1.0000 </r>
       <r>  -19.1918    1.0000 </r>
       <r>  -19.1916    1.0000 </r>
       <r>  -19.1916    1.0000 </r>
       <r>  -19.1915    1.0000 </r>
       <r>  -19.1915    1.0000 </r>
       <r>  -19.1915    1.0000 </r>
       <r>  -19.1914    1.0000 </r>
       <r>  -19.1914    1.0000 </r>
       <r>  -19.1914    1.0000 </r>
       <r>  -19.1914    1.0000 </r>
       <r>  -19.1913    1.0000 </r>
       <r>  -19.1913    1.0000 </r>
       <r>  -19.1913    1.0000 </r>
       <r>  -19.1912    1.0000 </r>
       <r>  -19.1912    1.0000 </r>
       <r>  -19.1912    1.0000 </r>
       <r>  -19.1911    1.0000 </r>
       <r>  -19.1911    1.0000 </r>
       <r>  -19.1911    1.0000 </r>
       <r>  -19.1910    1.0000 </r>
       <r>  -19.1910    1.0000 </r>
       <r>  -19.1910    1.0000 </r>
       <r>  -19.1909    1.0000 </r>
       <r>  -19.1908    1.0000 </r>
       <r>  -19.1908    1.0000 </r>
       <r>  -19.1908    1.0000 </r>
       <r>  -19.1908    1.0000 </r>
       <r>  -19.1907    1.0000 </r>
       <r>  -19.1907    1.0000 </r>
       <r>  -19.1906    1.0000 </r>
       <r>  -19.1905    1.0000 </r>
       <r>  -19.1905    1.0000 </r>
       <r>  -19.1904    1.0000 </r>
       <r>  -19.1904    1.0000 </r>
       <r>  -19.1904    1.0000 </r>
       <r>  -19.1904    1.0000 </r>
       <r>  -19.1903    1.0000 </r>
       <r>  -19.1902    1.0000 </r>
       <r>  -19.1902    1.0000 </r>
       <r>  -19.1902    1.0000 </r>
       <r>  -19.1901    1.0000 </r>
       <r>  -19.1901    1.0000 </r>
       <r>  -19.1901    1.0000 </r>
       <r>  -19.1899    1.0000 </r>
       <r>  -19.1899    1.0000 </r>
       <r>  -19.1899    1.0000 </r>
       <r>  -19.1898    1.0000 </r>
       <r>  -19.1898    1.0000 </r>
       <r>  -19.1897    1.0000 </r>
       <r>  -19.1897    1.0000 </r>
       <r>  -19.1896    1.0000 </r>
       <r>  -19.1896    1.0000 </r>
       <r>  -19.1896    1.0000 </r>
       <r>  -19.1895    1.0000 </r>
       <r>  -19.1895    1.0000 </r>
       <r>  -19.1894    1.0000 </r>
       <r>  -19.1893    1.0000 </r>
       <r>  -19.1893    1.0000 </r>
       <r>  -19.1892    1.0000 </r>
       <r>  -19.1891    1.0000 </r>
       <r>  -19.1890    1.0000 </r>
       <r>  -19.1888    1.0000 </r>
       <r>  -19.1888    1.0000 </r>
       <r>  -19.1888    1.0000 </r>
       <r>  -19.1881    1.0000 </r>
       <r>  -19.1880    1.0000 </r>
       <r>  -19.1880    1.0000 </r>
       <r>   -6.9934    1.0000 </r>
       <r>   -6.7411    1.0000 </r>
       <r>   -6.4106    1.0000 </r>
       <r>   -6.4103    1.0000 </r>
       <r>   -6.4101    1.0000 </r>
       <r>   -6.3209    1.0000 </r>
       <r>   -6.3206    1.0000 </r>
       <r>   -6.3204    1.0000 </r>
       <r>   -6.0950    1.0000 </r>
       <r>   -6.0947    1.0000 </r>
       <r>   -6.0945    1.0000 </r>
       <r>   -5.8048    1.0000 </r>
       <r>   -5.7046    1.0000 </r>
       <r>   -5.7043    1.0000 </r>
       <r>   -5.7041    1.0000 </r>
       <r>   -5.6624    1.0000 </r>
       <r>   -5.6622    1.0000 </r>
       <r>   -5.6619    1.0000 </r>
       <r>   -5.2544    1.0000 </r>
       <r>   -5.1363    1.0000 </r>
       <r>   -5.1361    1.0000 </r>
       <r>   -5.1358    1.0000 </r>
       <r>   -5.1222    1.0000 </r>
       <r>   -5.1215    1.0000 </r>
       <r>   -5.1214    1.0000 </r>
       <r>   -5.1214    1.0000 </r>
       <r>   -5.1212    1.0000 </r>
       <r>   -5.1208    1.0000 </r>
       <r>   -4.9354    1.0000 </r>
       <r>   -4.9349    1.0000 </r>
       <r>   -4.9346    1.0000 </r>
       <r>   -4.9157    1.0000 </r>
       <r>   -4.9149    1.0000 </r>
       <r>   -4.9149    1.0000 </r>
       <r>   -4.9148    1.0000 </r>
       <r>   -4.9147    1.0000 </r>
       <r>   -4.9143    1.0000 </r>
       <r>   -4.8103    1.0000 </r>
       <r>   -4.8098    1.0000 </r>
       <r>   -4.8096    1.0000 </r>
       <r>   -4.6413    1.0000 </r>
       <r>   -4.6412    1.0000 </r>
       <r>   -4.6407    1.0000 </r>
       <r>   -4.3247    1.0000 </r>
       <r>   -4.3247    1.0000 </r>
       <r>   -4.3240    1.0000 </r>
       <r>   -4.2601    1.0000 </r>
       <r>   -4.2597    1.0000 </r>
       <r>   -4.2594    1.0000 </r>
       <r>   -4.1696    1.0000 </r>
       <r>   -4.1690    1.0000 </r>
       <r>   -4.1689    1.0000 </r>
       <r>   -4.1689    1.0000 </r>
       <r>   -4.1687    1.0000 </r>
       <r>   -4.1683    1.0000 </r>
       <r>   -3.8501    1.0000 </r>
       <r>   -3.8498    1.0000 </r>
       <r>   -3.8495    1.0000 </r>
       <r>   -3.7270    1.0000 </r>
       <r>   -3.7266    1.0000 </r>
       <r>   -3.7265    1.0000 </r>
       <r>   -3.7265    1.0000 </r>
       <r>   -3.7263    1.0000 </r>
       <r>   -3.7261    1.0000 </r>
       <r>   -2.3909    1.0000 </r>
       <r>   -2.3905    1.0000 </r>
       <r>   -2.3900    1.0000 </r>
       <r>   -2.3660    1.0000 </r>
       <r>   -2.3653    1.0000 </r>
       <r>   -2.3652    1.0000 </r>
       <r>   -2.3652    1.0000 </r>
       <r>   -2.3651    1.0000 </r>
       <r>   -2.3642    1.0000 </r>
       <r>   -1.9958    1.0000 </r>
       <r>   -1.9953    1.0000 </r>
       <r>   -1.9952    1.0000 </r>
       <r>   -1.9952    1.0000 </r>
       <r>   -1.9951    1.0000 </r>
       <r>   -1.9942    1.0000 </r>
       <r>   -1.9786    1.0000 </r>
       <r>   -1.9769    1.0000 </r>
       <r>   -1.9767    1.0000 </r>
       <r>   -1.9101    1.0000 </r>
       <r>   -1.9100    1.0000 </r>
       <r>   -1.9094    1.0000 </r>
       <r>   -1.8789    1.0000 </r>
       <r>   -1.8787    1.0000 </r>
       <r>   -1.8781    1.0000 </r>
       <r>   -1.7279    1.0000 </r>
       <r>   -1.7278    1.0000 </r>
       <r>   -1.7272    1.0000 </r>
       <r>   -1.5529    1.0000 </r>
       <r>   -1.5514    1.0000 </r>
       <r>   -1.5512    1.0000 </r>
       <r>   -1.5387    1.0000 </r>
       <r>   -1.2745    1.0000 </r>
       <r>   -1.2745    1.0000 </r>
       <r>   -1.2743    1.0000 </r>
       <r>   -1.2743    1.0000 </r>
       <r>   -1.2742    1.0000 </r>
       <r>   -1.2731    1.0000 </r>
       <r>   -0.9483    1.0000 </r>
       <r>   -0.9483    1.0000 </r>
       <r>   -0.9482    1.0000 </r>
       <r>   -0.9481    1.0000 </r>
       <r>   -0.9481    1.0000 </r>
       <r>   -0.9469    1.0000 </r>
       <r>   -0.8029    1.0000 </r>
       <r>   -0.8016    1.0000 </r>
       <r>   -0.8014    1.0000 </r>
       <r>   -0.4817    1.0000 </r>
       <r>   -0.1331    1.0000 </r>
       <r>   -0.1324    1.0000 </r>
       <r>   -0.1321    1.0000 </r>
       <r>    0.1549    1.0000 </r>
       <r>    0.1558    1.0000 </r>
       <r>    0.1561    1.0000 </r>
       <r>    0.3875    1.0000 </r>
       <r>    0.3878    1.0000 </r>
       <r>    0.3882    1.0000 </r>
       <r>    1.1235    1.0000 </r>
       <r>    1.1237    1.0000 </r>
       <r>    1.1239    1.0000 </r>
       <r>    1.1240    1.0000 </r>
       <r>    1.1242    1.0000 </r>
       <r>    1.1244    1.0000 </r>
       <r>    1.1410    1.0000 </r>
       <r>    1.1413    1.0000 </r>
       <r>    1.1416    1.0000 </r>
       <r>    1.2223    1.0000 </r>
       <r>    1.2224    1.0000 </r>
       <r>    1.2226    1.0000 </r>
       <r>    1.2227    1.0000 </r>
       <r>    1.2231    1.0000 </r>
       <r>    1.2232    1.0000 </r>
       <r>    1.2321    1.0000 </r>
       <r>    1.2324    1.0000 </r>
       <r>    1.2328    1.0000 </r>
       <r>    1.3288    1.0000 </r>
       <r>    1.3289    1.0000 </r>
       <r>    1.3294    1.0000 </r>
       <r>    1.4968    1.0000 </r>
       <r>    1.4968    1.0000 </r>
       <r>    1.4974    1.0000 </r>
       <r>    1.5355    1.0000 </r>
       <r>    1.5359    1.0000 </r>
       <r>    1.5360    1.0000 </r>
       <r>    1.6064    1.0000 </r>
       <r>    1.6067    1.0000 </r>
       <r>    1.6068    1.0000 </r>
       <r>    1.6069    1.0000 </r>
       <r>    1.6075    1.0000 </r>
       <r>    1.6076    1.0000 </r>
       <r>    1.8448    1.0000 </r>
       <r>    1.8451    1.0000 </r>
       <r>    1.8451    1.0000 </r>
       <r>    1.8452    1.0000 </r>
       <r>    1.8459    1.0000 </r>
       <r>    1.8460    1.0000 </r>
       <r>    1.8639    1.0000 </r>
       <r>    1.8640    1.0000 </r>
       <r>    1.8644    1.0000 </r>
       <r>    1.8645    1.0000 </r>
       <r>    1.8647    1.0000 </r>
       <r>    1.8648    1.0000 </r>
       <r>    1.9428    1.0000 </r>
       <r>    1.9432    1.0000 </r>
       <r>    1.9434    1.0000 </r>
       <r>    2.1116    1.0000 </r>
       <r>    2.1119    1.0000 </r>
       <r>    2.1123    1.0000 </r>
       <r>    2.1886    1.0000 </r>
       <r>    2.1889    1.0000 </r>
       <r>    2.1892    1.0000 </r>
       <r>    2.2263    1.0000 </r>
       <r>    2.2270    1.0000 </r>
       <r>    2.2271    1.0000 </r>
       <r>    2.2969    1.0000 </r>
       <r>    2.2970    1.0000 </r>
       <r>    2.2972    1.0000 </r>
       <r>    2.4084    1.0000 </r>
       <r>    2.4849    1.0000 </r>
       <r>    2.4854    1.0000 </r>
       <r>    2.4857    1.0000 </r>
       <r>    2.4858    1.0000 </r>
       <r>    2.4859    1.0000 </r>
       <r>    2.4861    1.0000 </r>
       <r>    2.5185    1.0000 </r>
       <r>    2.5186    1.0000 </r>
       <r>    2.5189    1.0000 </r>
       <r>    2.7330    1.0000 </r>
       <r>    2.7330    1.0000 </r>
       <r>    2.7334    1.0000 </r>
       <r>    2.8322    1.0000 </r>
       <r>    2.8324    1.0000 </r>
       <r>    2.8327    1.0000 </r>
       <r>    2.9468    1.0000 </r>
       <r>    2.9470    1.0000 </r>
       <r>    2.9473    1.0000 </r>
       <r>    2.9610    1.0000 </r>
       <r>    2.9622    1.0000 </r>
       <r>    2.9625    1.0000 </r>
       <r>    2.9625    1.0000 </r>
       <r>    2.9627    1.0000 </r>
       <r>    2.9628    1.0000 </r>
       <r>    3.0378    1.0000 </r>
       <r>    3.0380    1.0000 </r>
       <r>    3.0384    1.0000 </r>
       <r>    3.1920    1.0000 </r>
       <r>    3.1928    1.0000 </r>
       <r>    3.1930    1.0000 </r>
       <r>    3.2823    1.0000 </r>
       <r>    3.2823    1.0000 </r>
       <r>    3.2827    1.0000 </r>
       <r>    3.3376    1.0000 </r>
       <r>    3.3378    1.0000 </r>
       <r>    3.3382    1.0000 </r>
       <r>    3.3441    1.0000 </r>
       <r>    3.3448    1.0000 </r>
       <r>    3.3450    1.0000 </r>
       <r>    3.4105    1.0000 </r>
       <r>    3.4117    1.0000 </r>
       <r>    3.4122    1.0000 </r>
       <r>    3.4122    1.0000 </r>
       <r>    3.4122    1.0000 </r>
       <r>    3.4123    1.0000 </r>
       <r>    3.5021    1.0000 </r>
       <r>    3.5033    1.0000 </r>
       <r>    3.5033    1.0000 </r>
       <r>    3.5633    1.0000 </r>
       <r>    3.5634    1.0000 </r>
       <r>    3.5638    1.0000 </r>
       <r>    3.6652    1.0000 </r>
       <r>    3.6653    1.0000 </r>
       <r>    3.6657    1.0000 </r>
       <r>    3.8857    1.0000 </r>
       <r>    3.8863    1.0000 </r>
       <r>    3.9765    1.0000 </r>
       <r>    3.9766    1.0000 </r>
       <r>    3.9770    1.0000 </r>
       <r>    4.0020    1.0000 </r>
       <r>    4.0474    1.0000 </r>
       <r>    4.0479    1.0000 </r>
       <r>    4.0666    1.0000 </r>
       <r>    4.0679    1.0000 </r>
       <r>    4.0680    1.0000 </r>
       <r>    4.1198    1.0000 </r>
       <r>    4.1199    1.0000 </r>
       <r>    4.1205    1.0000 </r>
       <r>    4.3681    1.0000 </r>
       <r>    4.3682    1.0000 </r>
       <r>    4.3688    1.0000 </r>
       <r>    4.6358    1.0000 </r>
       <r>    4.6364    1.0000 </r>
       <r>    4.9591    1.0000 </r>
       <r>    4.9597    1.0000 </r>
       <r>    5.9339    0.0000 </r>
       <r>    5.9342    0.0000 </r>
       <r>    5.9342    0.0000 </r>
       <r>    5.9535    0.0000 </r>
       <r>    6.1233    0.0000 </r>
       <r>    6.2206    0.0000 </r>
       <r>    6.2211    0.0000 </r>
       <r>    6.2211    0.0000 </r>
       <r>    6.3084    0.0000 </r>
       <r>    6.3089    0.0000 </r>
       <r>    6.3090    0.0000 </r>
       <r>    6.5317    0.0000 </r>
       <r>    6.5319    0.0000 </r>
       <r>    6.5321    0.0000 </r>
       <r>    6.5428    0.0000 </r>
       <r>    6.5432    0.0000 </r>
       <r>    6.5435    0.0000 </r>
       <r>    6.5596    0.0000 </r>
       <r>    6.5601    0.0000 </r>
       <r>    6.5608    0.0000 </r>
       <r>    6.7113    0.0000 </r>
       <r>    6.7701    0.0000 </r>
       <r>    6.7705    0.0000 </r>
       <r>    6.7707    0.0000 </r>
       <r>    6.7856    0.0000 </r>
       <r>    6.7859    0.0000 </r>
       <r>    6.7863    0.0000 </r>
       <r>    6.8718    0.0000 </r>
       <r>    6.8719    0.0000 </r>
       <r>    6.8721    0.0000 </r>
       <r>    6.8978    0.0000 </r>
       <r>    6.9735    0.0000 </r>
       <r>    6.9738    0.0000 </r>
       <r>    6.9740    0.0000 </r>
       <r>    6.9823    0.0000 </r>
       <r>    6.9824    0.0000 </r>
       <r>    6.9833    0.0000 </r>
       <r>    6.9833    0.0000 </r>
       <r>    6.9833    0.0000 </r>
       <r>    6.9837    0.0000 </r>
       <r>    7.0276    0.0000 </r>
       <r>    7.0281    0.0000 </r>
       <r>    7.0282    0.0000 </r>
       <r>    7.1160    0.0000 </r>
       <r>    7.1163    0.0000 </r>
       <r>    7.1165    0.0000 </r>
       <r>    7.2777    0.0000 </r>
       <r>    7.2778    0.0000 </r>
       <r>    7.2786    0.0000 </r>
       <r>    7.2786    0.0000 </r>
       <r>    7.2787    0.0000 </r>
       <r>    7.2794    0.0000 </r>
       <r>    7.4298    0.0000 </r>
       <r>    7.4301    0.0000 </r>
       <r>    7.4303    0.0000 </r>
       <r>    7.7997    0.0000 </r>
       <r>    7.7997    0.0000 </r>
       <r>    7.8004    0.0000 </r>
       <r>    7.8005    0.0000 </r>
       <r>    7.8005    0.0000 </r>
       <r>    7.8012    0.0000 </r>
       <r>    7.8481    0.0000 </r>
       <r>    7.8486    0.0000 </r>
       <r>    7.8504    0.0000 </r>
       <r>    7.8507    0.0000 </r>
       <r>    7.8512    0.0000 </r>
       <r>    7.8676    0.0000 </r>
       <r>    7.8677    0.0000 </r>
       <r>    7.8683    0.0000 </r>
       <r>    8.0460    0.0000 </r>
       <r>    8.0460    0.0000 </r>
       <r>    8.0471    0.0000 </r>
       <r>    8.1003    0.0000 </r>
       <r>    8.1005    0.0000 </r>
       <r>    8.1012    0.0000 </r>
       <r>    8.1012    0.0000 </r>
       <r>    8.1012    0.0000 </r>
       <r>    8.1015    0.0000 </r>
       <r>    8.1578    0.0000 </r>
       <r>    8.2901    0.0000 </r>
       <r>    8.2906    0.0000 </r>
       <r>    8.3254    0.0000 </r>
       <r>    8.3255    0.0000 </r>
       <r>    8.3261    0.0000 </r>
       <r>    8.4401    0.0000 </r>
       <r>    8.4403    0.0000 </r>
       <r>    8.4405    0.0000 </r>
       <r>    8.5278    0.0000 </r>
       <r>    8.5279    0.0000 </r>
       <r>    8.5287    0.0000 </r>
       <r>    8.6018    0.0000 </r>
       <r>    8.6020    0.0000 </r>
       <r>    8.6027    0.0000 </r>
       <r>    8.6879    0.0000 </r>
       <r>    8.6886    0.0000 </r>
       <r>    8.7035    0.0000 </r>
       <r>    8.7037    0.0000 </r>
       <r>    8.7046    0.0000 </r>
       <r>    8.7047    0.0000 </r>
       <r>    8.7047    0.0000 </r>
       <r>    8.7051    0.0000 </r>
       <r>    8.7331    0.0000 </r>
       <r>    8.7338    0.0000 </r>
       <r>    8.8938    0.0000 </r>
       <r>    8.8939    0.0000 </r>
       <r>    8.8943    0.0000 </r>
       <r>    8.9653    0.0000 </r>
       <r>    8.9654    0.0000 </r>
       <r>    8.9661    0.0000 </r>
       <r>    8.9878    0.0000 </r>
       <r>    8.9878    0.0000 </r>
       <r>    8.9886    0.0000 </r>
       <r>    9.0853    0.0000 </r>
       <r>    9.0857    0.0000 </r>
       <r>    9.0863    0.0000 </r>
       <r>    9.1002    0.0000 </r>
       <r>    9.1004    0.0000 </r>
       <r>    9.1010    0.0000 </r>
       <r>    9.1012    0.0000 </r>
       <r>    9.1013    0.0000 </r>
       <r>    9.1014    0.0000 </r>
       <r>    9.1709    0.0000 </r>
       <r>    9.1710    0.0000 </r>
       <r>    9.1716    0.0000 </r>
       <r>    9.2188    0.0000 </r>
       <r>    9.2192    0.0000 </r>
       <r>    9.2201    0.0000 </r>
       <r>    9.4171    0.0000 </r>
      </set>
      <set comment="kpoint 5">
       <r>  -19.2238    1.0000 </r>
       <r>  -19.2233    1.0000 </r>
       <r>  -19.2233    1.0000 </r>
       <r>  -19.2227    1.0000 </r>
       <r>  -19.2214    1.0000 </r>
       <r>  -19.2214    1.0000 </r>
       <r>  -19.2213    1.0000 </r>
       <r>  -19.2213    1.0000 </r>
       <r>  -19.2212    1.0000 </r>
       <r>  -19.2212    1.0000 </r>
       <r>  -19.2212    1.0000 </r>
       <r>  -19.2211    1.0000 </r>
       <r>  -19.2207    1.0000 </r>
       <r>  -19.2207    1.0000 </r>
       <r>  -19.2207    1.0000 </r>
       <r>  -19.2207    1.0000 </r>
       <r>  -19.2206    1.0000 </r>
       <r>  -19.2205    1.0000 </r>
       <r>  -19.2204    1.0000 </r>
       <r>  -19.2204    1.0000 </r>
       <r>  -19.2203    1.0000 </r>
       <r>  -19.2203    1.0000 </r>
       <r>  -19.2197    1.0000 </r>
       <r>  -19.2193    1.0000 </r>
       <r>  -19.2193    1.0000 </r>
       <r>  -19.2192    1.0000 </r>
       <r>  -19.2192    1.0000 </r>
       <r>  -19.2189    1.0000 </r>
       <r>  -19.2188    1.0000 </r>
       <r>  -19.2188    1.0000 </r>
       <r>  -19.2188    1.0000 </r>
       <r>  -19.2187    1.0000 </r>
       <r>  -19.2187    1.0000 </r>
       <r>  -19.2186    1.0000 </r>
       <r>  -19.2186    1.0000 </r>
       <r>  -19.2185    1.0000 </r>
       <r>  -19.2185    1.0000 </r>
       <r>  -19.2185    1.0000 </r>
       <r>  -19.2185    1.0000 </r>
       <r>  -19.2185    1.0000 </r>
       <r>  -19.2184    1.0000 </r>
       <r>  -19.2184    1.0000 </r>
       <r>  -19.2184    1.0000 </r>
       <r>  -19.2184    1.0000 </r>
       <r>  -19.2183    1.0000 </r>
       <r>  -19.2183    1.0000 </r>
       <r>  -19.2183    1.0000 </r>
       <r>  -19.2182    1.0000 </r>
       <r>  -19.2181    1.0000 </r>
       <r>  -19.2181    1.0000 </r>
       <r>  -19.2181    1.0000 </r>
       <r>  -19.2180    1.0000 </r>
       <r>  -19.2180    1.0000 </r>
       <r>  -19.2179    1.0000 </r>
       <r>  -19.2179    1.0000 </r>
       <r>  -19.2178    1.0000 </r>
       <r>  -19.2178    1.0000 </r>
       <r>  -19.2177    1.0000 </r>
       <r>  -19.2177    1.0000 </r>
       <r>  -19.2177    1.0000 </r>
       <r>  -19.2176    1.0000 </r>
       <r>  -19.2176    1.0000 </r>
       <r>  -19.2176    1.0000 </r>
       <r>  -19.2175    1.0000 </r>
       <r>  -19.2171    1.0000 </r>
       <r>  -19.2171    1.0000 </r>
       <r>  -19.2162    1.0000 </r>
       <r>  -19.2162    1.0000 </r>
       <r>  -19.2161    1.0000 </r>
       <r>  -19.2161    1.0000 </r>
       <r>  -19.2155    1.0000 </r>
       <r>  -19.2155    1.0000 </r>
       <r>  -19.2154    1.0000 </r>
       <r>  -19.2154    1.0000 </r>
       <r>  -19.2152    1.0000 </r>
       <r>  -19.2152    1.0000 </r>
       <r>  -19.2144    1.0000 </r>
       <r>  -19.2144    1.0000 </r>
       <r>  -19.2144    1.0000 </r>
       <r>  -19.2143    1.0000 </r>
       <r>  -19.2140    1.0000 </r>
       <r>  -19.2140    1.0000 </r>
       <r>  -19.2139    1.0000 </r>
       <r>  -19.2138    1.0000 </r>
       <r>  -19.2136    1.0000 </r>
       <r>  -19.2136    1.0000 </r>
       <r>  -19.2135    1.0000 </r>
       <r>  -19.2135    1.0000 </r>
       <r>  -19.2134    1.0000 </r>
       <r>  -19.2133    1.0000 </r>
       <r>  -19.2133    1.0000 </r>
       <r>  -19.2133    1.0000 </r>
       <r>  -19.2132    1.0000 </r>
       <r>  -19.2132    1.0000 </r>
       <r>  -19.2132    1.0000 </r>
       <r>  -19.2132    1.0000 </r>
       <r>  -19.2132    1.0000 </r>
       <r>  -19.2131    1.0000 </r>
       <r>  -19.2131    1.0000 </r>
       <r>  -19.2131    1.0000 </r>
       <r>  -19.2131    1.0000 </r>
       <r>  -19.2130    1.0000 </r>
       <r>  -19.2130    1.0000 </r>
       <r>  -19.2130    1.0000 </r>
       <r>  -19.2130    1.0000 </r>
       <r>  -19.2130    1.0000 </r>
       <r>  -19.2129    1.0000 </r>
       <r>  -19.2129    1.0000 </r>
       <r>  -19.2129    1.0000 </r>
       <r>  -19.2129    1.0000 </r>
       <r>  -19.2128    1.0000 </r>
       <r>  -19.2128    1.0000 </r>
       <r>  -19.2128    1.0000 </r>
       <r>  -19.2128    1.0000 </r>
       <r>  -19.2128    1.0000 </r>
       <r>  -19.2127    1.0000 </r>
       <r>  -19.2127    1.0000 </r>
       <r>  -19.2127    1.0000 </r>
       <r>  -19.2127    1.0000 </r>
       <r>  -19.2127    1.0000 </r>
       <r>  -19.2127    1.0000 </r>
       <r>  -19.2126    1.0000 </r>
       <r>  -19.2126    1.0000 </r>
       <r>  -19.2126    1.0000 </r>
       <r>  -19.2126    1.0000 </r>
       <r>  -19.2125    1.0000 </r>
       <r>  -19.2125    1.0000 </r>
       <r>  -19.2125    1.0000 </r>
       <r>  -19.2125    1.0000 </r>
       <r>  -19.2125    1.0000 </r>
       <r>  -19.2124    1.0000 </r>
       <r>  -19.2124    1.0000 </r>
       <r>  -19.2124    1.0000 </r>
       <r>  -19.2123    1.0000 </r>
       <r>  -19.2123    1.0000 </r>
       <r>  -19.2123    1.0000 </r>
       <r>  -19.2119    1.0000 </r>
       <r>  -19.2119    1.0000 </r>
       <r>  -19.2118    1.0000 </r>
       <r>  -19.2117    1.0000 </r>
       <r>  -19.2108    1.0000 </r>
       <r>  -19.2108    1.0000 </r>
       <r>  -19.2107    1.0000 </r>
       <r>  -19.2107    1.0000 </r>
       <r>  -19.2107    1.0000 </r>
       <r>  -19.2107    1.0000 </r>
       <r>  -19.2106    1.0000 </r>
       <r>  -19.2105    1.0000 </r>
       <r>  -19.2105    1.0000 </r>
       <r>  -19.2105    1.0000 </r>
       <r>  -19.2104    1.0000 </r>
       <r>  -19.2104    1.0000 </r>
       <r>  -19.2103    1.0000 </r>
       <r>  -19.2103    1.0000 </r>
       <r>  -19.2103    1.0000 </r>
       <r>  -19.2103    1.0000 </r>
       <r>  -19.2102    1.0000 </r>
       <r>  -19.2102    1.0000 </r>
       <r>  -19.2101    1.0000 </r>
       <r>  -19.2101    1.0000 </r>
       <r>  -19.2101    1.0000 </r>
       <r>  -19.2101    1.0000 </r>
       <r>  -19.2100    1.0000 </r>
       <r>  -19.2100    1.0000 </r>
       <r>  -19.2099    1.0000 </r>
       <r>  -19.2099    1.0000 </r>
       <r>  -19.2097    1.0000 </r>
       <r>  -19.2097    1.0000 </r>
       <r>  -19.2091    1.0000 </r>
       <r>  -19.2091    1.0000 </r>
       <r>  -19.2091    1.0000 </r>
       <r>  -19.2091    1.0000 </r>
       <r>  -19.2090    1.0000 </r>
       <r>  -19.2090    1.0000 </r>
       <r>  -19.2089    1.0000 </r>
       <r>  -19.2089    1.0000 </r>
       <r>  -19.2089    1.0000 </r>
       <r>  -19.2089    1.0000 </r>
       <r>  -19.2088    1.0000 </r>
       <r>  -19.2087    1.0000 </r>
       <r>  -19.2081    1.0000 </r>
       <r>  -19.2081    1.0000 </r>
       <r>  -19.2080    1.0000 </r>
       <r>  -19.2080    1.0000 </r>
       <r>  -19.2080    1.0000 </r>
       <r>  -19.2079    1.0000 </r>
       <r>  -19.2078    1.0000 </r>
       <r>  -19.2078    1.0000 </r>
       <r>  -19.2072    1.0000 </r>
       <r>  -19.2072    1.0000 </r>
       <r>  -19.2072    1.0000 </r>
       <r>  -19.2071    1.0000 </r>
       <r>  -19.1961    1.0000 </r>
       <r>  -19.1960    1.0000 </r>
       <r>  -19.1960    1.0000 </r>
       <r>  -19.1954    1.0000 </r>
       <r>  -19.1951    1.0000 </r>
       <r>  -19.1951    1.0000 </r>
       <r>  -19.1949    1.0000 </r>
       <r>  -19.1948    1.0000 </r>
       <r>  -19.1948    1.0000 </r>
       <r>  -19.1948    1.0000 </r>
       <r>  -19.1947    1.0000 </r>
       <r>  -19.1946    1.0000 </r>
       <r>  -19.1946    1.0000 </r>
       <r>  -19.1945    1.0000 </r>
       <r>  -19.1945    1.0000 </r>
       <r>  -19.1945    1.0000 </r>
       <r>  -19.1944    1.0000 </r>
       <r>  -19.1944    1.0000 </r>
       <r>  -19.1941    1.0000 </r>
       <r>  -19.1940    1.0000 </r>
       <r>  -19.1939    1.0000 </r>
       <r>  -19.1938    1.0000 </r>
       <r>  -19.1938    1.0000 </r>
       <r>  -19.1938    1.0000 </r>
       <r>  -19.1937    1.0000 </r>
       <r>  -19.1937    1.0000 </r>
       <r>  -19.1935    1.0000 </r>
       <r>  -19.1933    1.0000 </r>
       <r>  -19.1933    1.0000 </r>
       <r>  -19.1932    1.0000 </r>
       <r>  -19.1932    1.0000 </r>
       <r>  -19.1931    1.0000 </r>
       <r>  -19.1931    1.0000 </r>
       <r>  -19.1931    1.0000 </r>
       <r>  -19.1930    1.0000 </r>
       <r>  -19.1930    1.0000 </r>
       <r>  -19.1930    1.0000 </r>
       <r>  -19.1929    1.0000 </r>
       <r>  -19.1929    1.0000 </r>
       <r>  -19.1929    1.0000 </r>
       <r>  -19.1929    1.0000 </r>
       <r>  -19.1929    1.0000 </r>
       <r>  -19.1928    1.0000 </r>
       <r>  -19.1928    1.0000 </r>
       <r>  -19.1928    1.0000 </r>
       <r>  -19.1927    1.0000 </r>
       <r>  -19.1927    1.0000 </r>
       <r>  -19.1926    1.0000 </r>
       <r>  -19.1926    1.0000 </r>
       <r>  -19.1925    1.0000 </r>
       <r>  -19.1925    1.0000 </r>
       <r>  -19.1924    1.0000 </r>
       <r>  -19.1924    1.0000 </r>
       <r>  -19.1923    1.0000 </r>
       <r>  -19.1923    1.0000 </r>
       <r>  -19.1922    1.0000 </r>
       <r>  -19.1920    1.0000 </r>
       <r>  -19.1919    1.0000 </r>
       <r>  -19.1918    1.0000 </r>
       <r>  -19.1918    1.0000 </r>
       <r>  -19.1918    1.0000 </r>
       <r>  -19.1917    1.0000 </r>
       <r>  -19.1917    1.0000 </r>
       <r>  -19.1917    1.0000 </r>
       <r>  -19.1916    1.0000 </r>
       <r>  -19.1915    1.0000 </r>
       <r>  -19.1914    1.0000 </r>
       <r>  -19.1914    1.0000 </r>
       <r>  -19.1914    1.0000 </r>
       <r>  -19.1914    1.0000 </r>
       <r>  -19.1914    1.0000 </r>
       <r>  -19.1913    1.0000 </r>
       <r>  -19.1913    1.0000 </r>
       <r>  -19.1913    1.0000 </r>
       <r>  -19.1912    1.0000 </r>
       <r>  -19.1912    1.0000 </r>
       <r>  -19.1912    1.0000 </r>
       <r>  -19.1911    1.0000 </r>
       <r>  -19.1911    1.0000 </r>
       <r>  -19.1911    1.0000 </r>
       <r>  -19.1910    1.0000 </r>
       <r>  -19.1910    1.0000 </r>
       <r>  -19.1909    1.0000 </r>
       <r>  -19.1909    1.0000 </r>
       <r>  -19.1908    1.0000 </r>
       <r>  -19.1908    1.0000 </r>
       <r>  -19.1908    1.0000 </r>
       <r>  -19.1907    1.0000 </r>
       <r>  -19.1907    1.0000 </r>
       <r>  -19.1906    1.0000 </r>
       <r>  -19.1906    1.0000 </r>
       <r>  -19.1905    1.0000 </r>
       <r>  -19.1905    1.0000 </r>
       <r>  -19.1905    1.0000 </r>
       <r>  -19.1905    1.0000 </r>
       <r>  -19.1904    1.0000 </r>
       <r>  -19.1904    1.0000 </r>
       <r>  -19.1903    1.0000 </r>
       <r>  -19.1903    1.0000 </r>
       <r>  -19.1903    1.0000 </r>
       <r>  -19.1903    1.0000 </r>
       <r>  -19.1902    1.0000 </r>
       <r>  -19.1902    1.0000 </r>
       <r>  -19.1901    1.0000 </r>
       <r>  -19.1901    1.0000 </r>
       <r>  -19.1901    1.0000 </r>
       <r>  -19.1900    1.0000 </r>
       <r>  -19.1900    1.0000 </r>
       <r>  -19.1899    1.0000 </r>
       <r>  -19.1899    1.0000 </r>
       <r>  -19.1895    1.0000 </r>
       <r>  -19.1895    1.0000 </r>
       <r>  -19.1895    1.0000 </r>
       <r>  -19.1894    1.0000 </r>
       <r>  -19.1894    1.0000 </r>
       <r>  -19.1893    1.0000 </r>
       <r>  -19.1893    1.0000 </r>
       <r>  -19.1892    1.0000 </r>
       <r>  -19.1892    1.0000 </r>
       <r>  -19.1891    1.0000 </r>
       <r>  -19.1891    1.0000 </r>
       <r>  -19.1890    1.0000 </r>
       <r>  -19.1889    1.0000 </r>
       <r>  -19.1888    1.0000 </r>
       <r>  -19.1887    1.0000 </r>
       <r>  -19.1882    1.0000 </r>
       <r>  -19.1881    1.0000 </r>
       <r>  -19.1881    1.0000 </r>
       <r>   -6.9649    1.0000 </r>
       <r>   -6.6257    1.0000 </r>
       <r>   -6.5476    1.0000 </r>
       <r>   -6.5472    1.0000 </r>
       <r>   -6.5471    1.0000 </r>
       <r>   -6.5467    1.0000 </r>
       <r>   -5.9667    1.0000 </r>
       <r>   -5.9662    1.0000 </r>
       <r>   -5.9662    1.0000 </r>
       <r>   -5.9656    1.0000 </r>
       <r>   -5.9167    1.0000 </r>
       <r>   -5.9163    1.0000 </r>
       <r>   -5.9162    1.0000 </r>
       <r>   -5.9158    1.0000 </r>
       <r>   -5.6685    1.0000 </r>
       <r>   -5.6679    1.0000 </r>
       <r>   -5.6679    1.0000 </r>
       <r>   -5.6674    1.0000 </r>
       <r>   -5.3170    1.0000 </r>
       <r>   -5.3166    1.0000 </r>
       <r>   -5.3166    1.0000 </r>
       <r>   -5.3162    1.0000 </r>
       <r>   -5.3031    1.0000 </r>
       <r>   -5.1436    1.0000 </r>
       <r>   -5.1431    1.0000 </r>
       <r>   -5.1430    1.0000 </r>
       <r>   -5.1424    1.0000 </r>
       <r>   -5.0357    1.0000 </r>
       <r>   -5.0352    1.0000 </r>
       <r>   -5.0351    1.0000 </r>
       <r>   -5.0346    1.0000 </r>
       <r>   -4.6702    1.0000 </r>
       <r>   -4.6691    1.0000 </r>
       <r>   -4.6691    1.0000 </r>
       <r>   -4.6690    1.0000 </r>
       <r>   -4.6690    1.0000 </r>
       <r>   -4.6689    1.0000 </r>
       <r>   -4.6689    1.0000 </r>
       <r>   -4.6678    1.0000 </r>
       <r>   -4.5776    1.0000 </r>
       <r>   -4.5771    1.0000 </r>
       <r>   -4.5771    1.0000 </r>
       <r>   -4.5767    1.0000 </r>
       <r>   -4.4957    1.0000 </r>
       <r>   -4.4947    1.0000 </r>
       <r>   -4.4946    1.0000 </r>
       <r>   -4.4946    1.0000 </r>
       <r>   -4.4946    1.0000 </r>
       <r>   -4.4946    1.0000 </r>
       <r>   -4.4945    1.0000 </r>
       <r>   -4.4935    1.0000 </r>
       <r>   -4.3641    1.0000 </r>
       <r>   -3.9058    1.0000 </r>
       <r>   -3.9054    1.0000 </r>
       <r>   -3.9054    1.0000 </r>
       <r>   -3.9050    1.0000 </r>
       <r>   -3.8945    1.0000 </r>
       <r>   -3.8941    1.0000 </r>
       <r>   -3.8940    1.0000 </r>
       <r>   -3.8935    1.0000 </r>
       <r>   -3.5414    1.0000 </r>
       <r>   -3.5414    1.0000 </r>
       <r>   -3.4971    1.0000 </r>
       <r>   -3.4971    1.0000 </r>
       <r>   -2.7030    1.0000 </r>
       <r>   -2.7023    1.0000 </r>
       <r>   -2.6276    1.0000 </r>
       <r>   -2.6268    1.0000 </r>
       <r>   -2.2765    1.0000 </r>
       <r>   -2.2759    1.0000 </r>
       <r>   -2.2759    1.0000 </r>
       <r>   -2.2753    1.0000 </r>
       <r>   -2.1794    1.0000 </r>
       <r>   -2.1788    1.0000 </r>
       <r>   -2.1788    1.0000 </r>
       <r>   -2.1781    1.0000 </r>
       <r>   -1.8900    1.0000 </r>
       <r>   -1.8887    1.0000 </r>
       <r>   -1.8886    1.0000 </r>
       <r>   -1.8886    1.0000 </r>
       <r>   -1.8885    1.0000 </r>
       <r>   -1.8884    1.0000 </r>
       <r>   -1.8884    1.0000 </r>
       <r>   -1.8871    1.0000 </r>
       <r>   -1.7931    1.0000 </r>
       <r>   -1.7543    1.0000 </r>
       <r>   -1.7536    1.0000 </r>
       <r>   -1.7536    1.0000 </r>
       <r>   -1.7529    1.0000 </r>
       <r>   -1.5193    1.0000 </r>
       <r>   -1.5187    1.0000 </r>
       <r>   -1.5186    1.0000 </r>
       <r>   -1.5180    1.0000 </r>
       <r>   -1.3724    1.0000 </r>
       <r>   -1.3710    1.0000 </r>
       <r>   -1.3710    1.0000 </r>
       <r>   -1.3710    1.0000 </r>
       <r>   -1.3709    1.0000 </r>
       <r>   -1.3708    1.0000 </r>
       <r>   -1.3708    1.0000 </r>
       <r>   -1.3694    1.0000 </r>
       <r>   -1.1902    1.0000 </r>
       <r>   -1.1895    1.0000 </r>
       <r>   -1.1894    1.0000 </r>
       <r>   -1.1887    1.0000 </r>
       <r>   -0.8863    1.0000 </r>
       <r>   -0.8858    1.0000 </r>
       <r>   -0.8857    1.0000 </r>
       <r>   -0.8852    1.0000 </r>
       <r>   -0.4290    1.0000 </r>
       <r>   -0.0575    1.0000 </r>
       <r>   -0.0570    1.0000 </r>
       <r>   -0.0568    1.0000 </r>
       <r>   -0.0563    1.0000 </r>
       <r>   -0.0300    1.0000 </r>
       <r>   -0.0293    1.0000 </r>
       <r>   -0.0293    1.0000 </r>
       <r>   -0.0286    1.0000 </r>
       <r>    0.6822    1.0000 </r>
       <r>    0.6829    1.0000 </r>
       <r>    0.6829    1.0000 </r>
       <r>    0.6836    1.0000 </r>
       <r>    1.0025    1.0000 </r>
       <r>    1.0028    1.0000 </r>
       <r>    1.0029    1.0000 </r>
       <r>    1.0032    1.0000 </r>
       <r>    1.0067    1.0000 </r>
       <r>    1.0068    1.0000 </r>
       <r>    1.0069    1.0000 </r>
       <r>    1.0071    1.0000 </r>
       <r>    1.0454    1.0000 </r>
       <r>    1.0456    1.0000 </r>
       <r>    1.0458    1.0000 </r>
       <r>    1.0459    1.0000 </r>
       <r>    1.5119    1.0000 </r>
       <r>    1.5120    1.0000 </r>
       <r>    1.5590    1.0000 </r>
       <r>    1.5590    1.0000 </r>
       <r>    1.5951    1.0000 </r>
       <r>    1.5954    1.0000 </r>
       <r>    1.5956    1.0000 </r>
       <r>    1.5958    1.0000 </r>
       <r>    1.5958    1.0000 </r>
       <r>    1.5961    1.0000 </r>
       <r>    1.5963    1.0000 </r>
       <r>    1.5966    1.0000 </r>
       <r>    1.7133    1.0000 </r>
       <r>    1.7134    1.0000 </r>
       <r>    1.7137    1.0000 </r>
       <r>    1.7138    1.0000 </r>
       <r>    1.7138    1.0000 </r>
       <r>    1.7139    1.0000 </r>
       <r>    1.7142    1.0000 </r>
       <r>    1.7143    1.0000 </r>
       <r>    1.7995    1.0000 </r>
       <r>    1.8000    1.0000 </r>
       <r>    1.8003    1.0000 </r>
       <r>    1.8007    1.0000 </r>
       <r>    1.9520    1.0000 </r>
       <r>    1.9523    1.0000 </r>
       <r>    1.9653    1.0000 </r>
       <r>    1.9653    1.0000 </r>
       <r>    2.0016    1.0000 </r>
       <r>    2.0021    1.0000 </r>
       <r>    2.0021    1.0000 </r>
       <r>    2.0025    1.0000 </r>
       <r>    2.0384    1.0000 </r>
       <r>    2.0387    1.0000 </r>
       <r>    2.0389    1.0000 </r>
       <r>    2.0392    1.0000 </r>
       <r>    2.0751    1.0000 </r>
       <r>    2.0754    1.0000 </r>
       <r>    2.0755    1.0000 </r>
       <r>    2.0758    1.0000 </r>
       <r>    2.3325    1.0000 </r>
       <r>    2.3329    1.0000 </r>
       <r>    2.4804    1.0000 </r>
       <r>    2.4809    1.0000 </r>
       <r>    2.4811    1.0000 </r>
       <r>    2.4812    1.0000 </r>
       <r>    2.4812    1.0000 </r>
       <r>    2.4813    1.0000 </r>
       <r>    2.4814    1.0000 </r>
       <r>    2.4820    1.0000 </r>
       <r>    2.5346    1.0000 </r>
       <r>    2.5662    1.0000 </r>
       <r>    2.5667    1.0000 </r>
       <r>    2.5668    1.0000 </r>
       <r>    2.5673    1.0000 </r>
       <r>    2.6634    1.0000 </r>
       <r>    2.6637    1.0000 </r>
       <r>    2.6678    1.0000 </r>
       <r>    2.6683    1.0000 </r>
       <r>    2.6684    1.0000 </r>
       <r>    2.6689    1.0000 </r>
       <r>    2.7777    1.0000 </r>
       <r>    2.7781    1.0000 </r>
       <r>    2.7782    1.0000 </r>
       <r>    2.7786    1.0000 </r>
       <r>    2.9442    1.0000 </r>
       <r>    2.9446    1.0000 </r>
       <r>    2.9449    1.0000 </r>
       <r>    2.9450    1.0000 </r>
       <r>    2.9450    1.0000 </r>
       <r>    2.9451    1.0000 </r>
       <r>    2.9454    1.0000 </r>
       <r>    2.9458    1.0000 </r>
       <r>    3.0069    1.0000 </r>
       <r>    3.0074    1.0000 </r>
       <r>    3.0074    1.0000 </r>
       <r>    3.0079    1.0000 </r>
       <r>    3.1100    1.0000 </r>
       <r>    3.1105    1.0000 </r>
       <r>    3.1106    1.0000 </r>
       <r>    3.1111    1.0000 </r>
       <r>    3.2379    1.0000 </r>
       <r>    3.2384    1.0000 </r>
       <r>    3.2385    1.0000 </r>
       <r>    3.2391    1.0000 </r>
       <r>    3.4318    1.0000 </r>
       <r>    3.4321    1.0000 </r>
       <r>    3.4322    1.0000 </r>
       <r>    3.4326    1.0000 </r>
       <r>    3.6843    1.0000 </r>
       <r>    3.6846    1.0000 </r>
       <r>    3.6848    1.0000 </r>
       <r>    3.6850    1.0000 </r>
       <r>    3.6964    1.0000 </r>
       <r>    3.6970    1.0000 </r>
       <r>    3.6970    1.0000 </r>
       <r>    3.6976    1.0000 </r>
       <r>    3.7488    1.0000 </r>
       <r>    3.7501    1.0000 </r>
       <r>    3.7503    1.0000 </r>
       <r>    3.7503    1.0000 </r>
       <r>    3.7505    1.0000 </r>
       <r>    3.7506    1.0000 </r>
       <r>    3.7508    1.0000 </r>
       <r>    3.7520    1.0000 </r>
       <r>    3.7793    1.0000 </r>
       <r>    3.7797    1.0000 </r>
       <r>    3.7799    1.0000 </r>
       <r>    3.7803    1.0000 </r>
       <r>    3.8029    1.0000 </r>
       <r>    3.8035    1.0000 </r>
       <r>    3.8037    1.0000 </r>
       <r>    3.8044    1.0000 </r>
       <r>    3.9047    1.0000 </r>
       <r>    3.9052    1.0000 </r>
       <r>    4.0441    1.0000 </r>
       <r>    4.6750    1.0000 </r>
       <r>    4.6758    1.0000 </r>
       <r>    4.7138    1.0000 </r>
       <r>    4.7147    1.0000 </r>
       <r>    4.7148    1.0000 </r>
       <r>    4.7158    1.0000 </r>
       <r>    5.7217    0.0000 </r>
       <r>    5.8500    0.0000 </r>
       <r>    6.3490    0.0000 </r>
       <r>    6.3490    0.0000 </r>
       <r>    6.3823    0.0000 </r>
       <r>    6.3829    0.0000 </r>
       <r>    6.3830    0.0000 </r>
       <r>    6.3836    0.0000 </r>
       <r>    6.4296    0.0000 </r>
       <r>    6.5387    0.0000 </r>
       <r>    6.5389    0.0000 </r>
       <r>    6.5391    0.0000 </r>
       <r>    6.5393    0.0000 </r>
       <r>    6.6420    0.0000 </r>
       <r>    6.6430    0.0000 </r>
       <r>    6.7639    0.0000 </r>
       <r>    6.8300    0.0000 </r>
       <r>    6.8308    0.0000 </r>
       <r>    6.8309    0.0000 </r>
       <r>    6.8310    0.0000 </r>
       <r>    6.8310    0.0000 </r>
       <r>    6.8311    0.0000 </r>
       <r>    6.8312    0.0000 </r>
       <r>    6.8319    0.0000 </r>
       <r>    6.8438    0.0000 </r>
       <r>    6.8440    0.0000 </r>
       <r>    6.8442    0.0000 </r>
       <r>    6.8444    0.0000 </r>
       <r>    6.8572    0.0000 </r>
       <r>    6.8575    0.0000 </r>
       <r>    6.8578    0.0000 </r>
       <r>    6.8582    0.0000 </r>
       <r>    6.9954    0.0000 </r>
       <r>    6.9959    0.0000 </r>
       <r>    6.9961    0.0000 </r>
       <r>    6.9966    0.0000 </r>
       <r>    7.1383    0.0000 </r>
       <r>    7.1386    0.0000 </r>
       <r>    7.1387    0.0000 </r>
       <r>    7.1389    0.0000 </r>
       <r>    7.1866    0.0000 </r>
       <r>    7.2112    0.0000 </r>
       <r>    7.2117    0.0000 </r>
       <r>    7.2118    0.0000 </r>
       <r>    7.2122    0.0000 </r>
       <r>    7.3330    0.0000 </r>
       <r>    7.3659    0.0000 </r>
       <r>    7.3667    0.0000 </r>
       <r>    7.3669    0.0000 </r>
       <r>    7.3669    0.0000 </r>
       <r>    7.3670    0.0000 </r>
       <r>    7.3670    0.0000 </r>
       <r>    7.3672    0.0000 </r>
       <r>    7.3681    0.0000 </r>
       <r>    7.5118    0.0000 </r>
       <r>    7.5328    0.0000 </r>
       <r>    7.5332    0.0000 </r>
       <r>    7.5332    0.0000 </r>
       <r>    7.5337    0.0000 </r>
       <r>    7.7103    0.0000 </r>
       <r>    7.7103    0.0000 </r>
       <r>    8.0044    0.0000 </r>
       <r>    8.0047    0.0000 </r>
       <r>    8.0048    0.0000 </r>
       <r>    8.0051    0.0000 </r>
       <r>    8.0146    0.0000 </r>
       <r>    8.0154    0.0000 </r>
       <r>    8.1258    0.0000 </r>
       <r>    8.1266    0.0000 </r>
       <r>    8.1268    0.0000 </r>
       <r>    8.1269    0.0000 </r>
       <r>    8.1269    0.0000 </r>
       <r>    8.1271    0.0000 </r>
       <r>    8.1273    0.0000 </r>
       <r>    8.1281    0.0000 </r>
       <r>    8.2141    0.0000 </r>
       <r>    8.2145    0.0000 </r>
       <r>    8.2436    0.0000 </r>
       <r>    8.2443    0.0000 </r>
       <r>    8.2443    0.0000 </r>
       <r>    8.2450    0.0000 </r>
       <r>    8.2783    0.0000 </r>
       <r>    8.2787    0.0000 </r>
       <r>    8.2790    0.0000 </r>
       <r>    8.2794    0.0000 </r>
       <r>    8.3550    0.0000 </r>
       <r>    8.3555    0.0000 </r>
       <r>    8.3555    0.0000 </r>
       <r>    8.3560    0.0000 </r>
       <r>    8.3671    0.0000 </r>
       <r>    8.3674    0.0000 </r>
       <r>    8.3680    0.0000 </r>
       <r>    8.3683    0.0000 </r>
       <r>    8.3935    0.0000 </r>
       <r>    8.3938    0.0000 </r>
       <r>    8.3939    0.0000 </r>
       <r>    8.3942    0.0000 </r>
       <r>    8.5094    0.0000 </r>
       <r>    8.5603    0.0000 </r>
       <r>    8.5607    0.0000 </r>
       <r>    8.5610    0.0000 </r>
       <r>    8.5614    0.0000 </r>
       <r>    8.6524    0.0000 </r>
       <r>    8.6528    0.0000 </r>
       <r>    8.6534    0.0000 </r>
       <r>    8.6538    0.0000 </r>
       <r>    8.8673    0.0000 </r>
       <r>    8.8680    0.0000 </r>
       <r>    8.8680    0.0000 </r>
       <r>    8.8687    0.0000 </r>
       <r>    8.9375    0.0000 </r>
       <r>    8.9380    0.0000 </r>
       <r>    8.9381    0.0000 </r>
       <r>    8.9385    0.0000 </r>
       <r>    8.9429    0.0000 </r>
       <r>    8.9436    0.0000 </r>
       <r>    8.9438    0.0000 </r>
       <r>    8.9439    0.0000 </r>
       <r>    8.9439    0.0000 </r>
       <r>    8.9440    0.0000 </r>
       <r>    8.9442    0.0000 </r>
       <r>    8.9451    0.0000 </r>
       <r>    9.1181    0.0000 </r>
       <r>    9.1186    0.0000 </r>
       <r>    9.1195    0.0000 </r>
       <r>    9.1288    0.0000 </r>
       <r>    9.2607    0.0000 </r>
       <r>    9.2668    0.0000 </r>
      </set>
      <set comment="kpoint 6">
       <r>  -19.2238    1.0000 </r>
       <r>  -19.2233    1.0000 </r>
       <r>  -19.2233    1.0000 </r>
       <r>  -19.2227    1.0000 </r>
       <r>  -19.2214    1.0000 </r>
       <r>  -19.2213    1.0000 </r>
       <r>  -19.2213    1.0000 </r>
       <r>  -19.2213    1.0000 </r>
       <r>  -19.2213    1.0000 </r>
       <r>  -19.2213    1.0000 </r>
       <r>  -19.2212    1.0000 </r>
       <r>  -19.2212    1.0000 </r>
       <r>  -19.2207    1.0000 </r>
       <r>  -19.2207    1.0000 </r>
       <r>  -19.2207    1.0000 </r>
       <r>  -19.2206    1.0000 </r>
       <r>  -19.2206    1.0000 </r>
       <r>  -19.2206    1.0000 </r>
       <r>  -19.2204    1.0000 </r>
       <r>  -19.2203    1.0000 </r>
       <r>  -19.2203    1.0000 </r>
       <r>  -19.2203    1.0000 </r>
       <r>  -19.2196    1.0000 </r>
       <r>  -19.2193    1.0000 </r>
       <r>  -19.2193    1.0000 </r>
       <r>  -19.2192    1.0000 </r>
       <r>  -19.2191    1.0000 </r>
       <r>  -19.2189    1.0000 </r>
       <r>  -19.2189    1.0000 </r>
       <r>  -19.2188    1.0000 </r>
       <r>  -19.2187    1.0000 </r>
       <r>  -19.2187    1.0000 </r>
       <r>  -19.2187    1.0000 </r>
       <r>  -19.2186    1.0000 </r>
       <r>  -19.2185    1.0000 </r>
       <r>  -19.2185    1.0000 </r>
       <r>  -19.2185    1.0000 </r>
       <r>  -19.2185    1.0000 </r>
       <r>  -19.2185    1.0000 </r>
       <r>  -19.2185    1.0000 </r>
       <r>  -19.2184    1.0000 </r>
       <r>  -19.2184    1.0000 </r>
       <r>  -19.2184    1.0000 </r>
       <r>  -19.2183    1.0000 </r>
       <r>  -19.2183    1.0000 </r>
       <r>  -19.2183    1.0000 </r>
       <r>  -19.2183    1.0000 </r>
       <r>  -19.2182    1.0000 </r>
       <r>  -19.2181    1.0000 </r>
       <r>  -19.2181    1.0000 </r>
       <r>  -19.2180    1.0000 </r>
       <r>  -19.2180    1.0000 </r>
       <r>  -19.2180    1.0000 </r>
       <r>  -19.2179    1.0000 </r>
       <r>  -19.2179    1.0000 </r>
       <r>  -19.2179    1.0000 </r>
       <r>  -19.2178    1.0000 </r>
       <r>  -19.2178    1.0000 </r>
       <r>  -19.2177    1.0000 </r>
       <r>  -19.2177    1.0000 </r>
       <r>  -19.2176    1.0000 </r>
       <r>  -19.2176    1.0000 </r>
       <r>  -19.2175    1.0000 </r>
       <r>  -19.2175    1.0000 </r>
       <r>  -19.2173    1.0000 </r>
       <r>  -19.2170    1.0000 </r>
       <r>  -19.2162    1.0000 </r>
       <r>  -19.2162    1.0000 </r>
       <r>  -19.2161    1.0000 </r>
       <r>  -19.2161    1.0000 </r>
       <r>  -19.2155    1.0000 </r>
       <r>  -19.2155    1.0000 </r>
       <r>  -19.2155    1.0000 </r>
       <r>  -19.2154    1.0000 </r>
       <r>  -19.2152    1.0000 </r>
       <r>  -19.2152    1.0000 </r>
       <r>  -19.2144    1.0000 </r>
       <r>  -19.2144    1.0000 </r>
       <r>  -19.2144    1.0000 </r>
       <r>  -19.2143    1.0000 </r>
       <r>  -19.2140    1.0000 </r>
       <r>  -19.2139    1.0000 </r>
       <r>  -19.2139    1.0000 </r>
       <r>  -19.2139    1.0000 </r>
       <r>  -19.2136    1.0000 </r>
       <r>  -19.2136    1.0000 </r>
       <r>  -19.2135    1.0000 </r>
       <r>  -19.2135    1.0000 </r>
       <r>  -19.2134    1.0000 </r>
       <r>  -19.2134    1.0000 </r>
       <r>  -19.2133    1.0000 </r>
       <r>  -19.2133    1.0000 </r>
       <r>  -19.2133    1.0000 </r>
       <r>  -19.2132    1.0000 </r>
       <r>  -19.2132    1.0000 </r>
       <r>  -19.2132    1.0000 </r>
       <r>  -19.2132    1.0000 </r>
       <r>  -19.2131    1.0000 </r>
       <r>  -19.2131    1.0000 </r>
       <r>  -19.2131    1.0000 </r>
       <r>  -19.2130    1.0000 </r>
       <r>  -19.2130    1.0000 </r>
       <r>  -19.2130    1.0000 </r>
       <r>  -19.2130    1.0000 </r>
       <r>  -19.2130    1.0000 </r>
       <r>  -19.2130    1.0000 </r>
       <r>  -19.2129    1.0000 </r>
       <r>  -19.2129    1.0000 </r>
       <r>  -19.2129    1.0000 </r>
       <r>  -19.2129    1.0000 </r>
       <r>  -19.2128    1.0000 </r>
       <r>  -19.2128    1.0000 </r>
       <r>  -19.2128    1.0000 </r>
       <r>  -19.2128    1.0000 </r>
       <r>  -19.2127    1.0000 </r>
       <r>  -19.2127    1.0000 </r>
       <r>  -19.2127    1.0000 </r>
       <r>  -19.2127    1.0000 </r>
       <r>  -19.2127    1.0000 </r>
       <r>  -19.2126    1.0000 </r>
       <r>  -19.2126    1.0000 </r>
       <r>  -19.2126    1.0000 </r>
       <r>  -19.2126    1.0000 </r>
       <r>  -19.2126    1.0000 </r>
       <r>  -19.2126    1.0000 </r>
       <r>  -19.2126    1.0000 </r>
       <r>  -19.2125    1.0000 </r>
       <r>  -19.2125    1.0000 </r>
       <r>  -19.2125    1.0000 </r>
       <r>  -19.2124    1.0000 </r>
       <r>  -19.2124    1.0000 </r>
       <r>  -19.2124    1.0000 </r>
       <r>  -19.2124    1.0000 </r>
       <r>  -19.2124    1.0000 </r>
       <r>  -19.2123    1.0000 </r>
       <r>  -19.2123    1.0000 </r>
       <r>  -19.2119    1.0000 </r>
       <r>  -19.2119    1.0000 </r>
       <r>  -19.2118    1.0000 </r>
       <r>  -19.2118    1.0000 </r>
       <r>  -19.2109    1.0000 </r>
       <r>  -19.2108    1.0000 </r>
       <r>  -19.2108    1.0000 </r>
       <r>  -19.2107    1.0000 </r>
       <r>  -19.2106    1.0000 </r>
       <r>  -19.2106    1.0000 </r>
       <r>  -19.2106    1.0000 </r>
       <r>  -19.2105    1.0000 </r>
       <r>  -19.2105    1.0000 </r>
       <r>  -19.2105    1.0000 </r>
       <r>  -19.2104    1.0000 </r>
       <r>  -19.2104    1.0000 </r>
       <r>  -19.2103    1.0000 </r>
       <r>  -19.2103    1.0000 </r>
       <r>  -19.2103    1.0000 </r>
       <r>  -19.2103    1.0000 </r>
       <r>  -19.2102    1.0000 </r>
       <r>  -19.2102    1.0000 </r>
       <r>  -19.2102    1.0000 </r>
       <r>  -19.2102    1.0000 </r>
       <r>  -19.2102    1.0000 </r>
       <r>  -19.2100    1.0000 </r>
       <r>  -19.2100    1.0000 </r>
       <r>  -19.2100    1.0000 </r>
       <r>  -19.2099    1.0000 </r>
       <r>  -19.2098    1.0000 </r>
       <r>  -19.2098    1.0000 </r>
       <r>  -19.2097    1.0000 </r>
       <r>  -19.2091    1.0000 </r>
       <r>  -19.2091    1.0000 </r>
       <r>  -19.2091    1.0000 </r>
       <r>  -19.2090    1.0000 </r>
       <r>  -19.2090    1.0000 </r>
       <r>  -19.2090    1.0000 </r>
       <r>  -19.2090    1.0000 </r>
       <r>  -19.2090    1.0000 </r>
       <r>  -19.2089    1.0000 </r>
       <r>  -19.2088    1.0000 </r>
       <r>  -19.2088    1.0000 </r>
       <r>  -19.2088    1.0000 </r>
       <r>  -19.2081    1.0000 </r>
       <r>  -19.2081    1.0000 </r>
       <r>  -19.2080    1.0000 </r>
       <r>  -19.2080    1.0000 </r>
       <r>  -19.2080    1.0000 </r>
       <r>  -19.2079    1.0000 </r>
       <r>  -19.2079    1.0000 </r>
       <r>  -19.2078    1.0000 </r>
       <r>  -19.2072    1.0000 </r>
       <r>  -19.2072    1.0000 </r>
       <r>  -19.2072    1.0000 </r>
       <r>  -19.2072    1.0000 </r>
       <r>  -19.1961    1.0000 </r>
       <r>  -19.1960    1.0000 </r>
       <r>  -19.1959    1.0000 </r>
       <r>  -19.1954    1.0000 </r>
       <r>  -19.1952    1.0000 </r>
       <r>  -19.1950    1.0000 </r>
       <r>  -19.1949    1.0000 </r>
       <r>  -19.1949    1.0000 </r>
       <r>  -19.1948    1.0000 </r>
       <r>  -19.1948    1.0000 </r>
       <r>  -19.1947    1.0000 </r>
       <r>  -19.1947    1.0000 </r>
       <r>  -19.1946    1.0000 </r>
       <r>  -19.1946    1.0000 </r>
       <r>  -19.1945    1.0000 </r>
       <r>  -19.1945    1.0000 </r>
       <r>  -19.1944    1.0000 </r>
       <r>  -19.1944    1.0000 </r>
       <r>  -19.1940    1.0000 </r>
       <r>  -19.1940    1.0000 </r>
       <r>  -19.1939    1.0000 </r>
       <r>  -19.1939    1.0000 </r>
       <r>  -19.1938    1.0000 </r>
       <r>  -19.1938    1.0000 </r>
       <r>  -19.1938    1.0000 </r>
       <r>  -19.1938    1.0000 </r>
       <r>  -19.1934    1.0000 </r>
       <r>  -19.1933    1.0000 </r>
       <r>  -19.1933    1.0000 </r>
       <r>  -19.1932    1.0000 </r>
       <r>  -19.1931    1.0000 </r>
       <r>  -19.1931    1.0000 </r>
       <r>  -19.1931    1.0000 </r>
       <r>  -19.1930    1.0000 </r>
       <r>  -19.1929    1.0000 </r>
       <r>  -19.1929    1.0000 </r>
       <r>  -19.1929    1.0000 </r>
       <r>  -19.1929    1.0000 </r>
       <r>  -19.1929    1.0000 </r>
       <r>  -19.1929    1.0000 </r>
       <r>  -19.1928    1.0000 </r>
       <r>  -19.1928    1.0000 </r>
       <r>  -19.1928    1.0000 </r>
       <r>  -19.1928    1.0000 </r>
       <r>  -19.1928    1.0000 </r>
       <r>  -19.1928    1.0000 </r>
       <r>  -19.1927    1.0000 </r>
       <r>  -19.1927    1.0000 </r>
       <r>  -19.1927    1.0000 </r>
       <r>  -19.1925    1.0000 </r>
       <r>  -19.1925    1.0000 </r>
       <r>  -19.1924    1.0000 </r>
       <r>  -19.1924    1.0000 </r>
       <r>  -19.1923    1.0000 </r>
       <r>  -19.1923    1.0000 </r>
       <r>  -19.1923    1.0000 </r>
       <r>  -19.1920    1.0000 </r>
       <r>  -19.1919    1.0000 </r>
       <r>  -19.1918    1.0000 </r>
       <r>  -19.1918    1.0000 </r>
       <r>  -19.1918    1.0000 </r>
       <r>  -19.1917    1.0000 </r>
       <r>  -19.1917    1.0000 </r>
       <r>  -19.1917    1.0000 </r>
       <r>  -19.1916    1.0000 </r>
       <r>  -19.1916    1.0000 </r>
       <r>  -19.1915    1.0000 </r>
       <r>  -19.1915    1.0000 </r>
       <r>  -19.1914    1.0000 </r>
       <r>  -19.1914    1.0000 </r>
       <r>  -19.1914    1.0000 </r>
       <r>  -19.1913    1.0000 </r>
       <r>  -19.1913    1.0000 </r>
       <r>  -19.1913    1.0000 </r>
       <r>  -19.1912    1.0000 </r>
       <r>  -19.1912    1.0000 </r>
       <r>  -19.1912    1.0000 </r>
       <r>  -19.1911    1.0000 </r>
       <r>  -19.1911    1.0000 </r>
       <r>  -19.1910    1.0000 </r>
       <r>  -19.1910    1.0000 </r>
       <r>  -19.1909    1.0000 </r>
       <r>  -19.1909    1.0000 </r>
       <r>  -19.1909    1.0000 </r>
       <r>  -19.1908    1.0000 </r>
       <r>  -19.1908    1.0000 </r>
       <r>  -19.1908    1.0000 </r>
       <r>  -19.1907    1.0000 </r>
       <r>  -19.1907    1.0000 </r>
       <r>  -19.1907    1.0000 </r>
       <r>  -19.1906    1.0000 </r>
       <r>  -19.1906    1.0000 </r>
       <r>  -19.1905    1.0000 </r>
       <r>  -19.1905    1.0000 </r>
       <r>  -19.1905    1.0000 </r>
       <r>  -19.1905    1.0000 </r>
       <r>  -19.1904    1.0000 </r>
       <r>  -19.1904    1.0000 </r>
       <r>  -19.1903    1.0000 </r>
       <r>  -19.1903    1.0000 </r>
       <r>  -19.1902    1.0000 </r>
       <r>  -19.1902    1.0000 </r>
       <r>  -19.1901    1.0000 </r>
       <r>  -19.1901    1.0000 </r>
       <r>  -19.1901    1.0000 </r>
       <r>  -19.1900    1.0000 </r>
       <r>  -19.1900    1.0000 </r>
       <r>  -19.1900    1.0000 </r>
       <r>  -19.1899    1.0000 </r>
       <r>  -19.1899    1.0000 </r>
       <r>  -19.1895    1.0000 </r>
       <r>  -19.1895    1.0000 </r>
       <r>  -19.1895    1.0000 </r>
       <r>  -19.1894    1.0000 </r>
       <r>  -19.1894    1.0000 </r>
       <r>  -19.1893    1.0000 </r>
       <r>  -19.1893    1.0000 </r>
       <r>  -19.1893    1.0000 </r>
       <r>  -19.1891    1.0000 </r>
       <r>  -19.1891    1.0000 </r>
       <r>  -19.1891    1.0000 </r>
       <r>  -19.1890    1.0000 </r>
       <r>  -19.1890    1.0000 </r>
       <r>  -19.1888    1.0000 </r>
       <r>  -19.1887    1.0000 </r>
       <r>  -19.1882    1.0000 </r>
       <r>  -19.1881    1.0000 </r>
       <r>  -19.1881    1.0000 </r>
       <r>   -6.9649    1.0000 </r>
       <r>   -6.6257    1.0000 </r>
       <r>   -6.5477    1.0000 </r>
       <r>   -6.5472    1.0000 </r>
       <r>   -6.5472    1.0000 </r>
       <r>   -6.5466    1.0000 </r>
       <r>   -5.9669    1.0000 </r>
       <r>   -5.9662    1.0000 </r>
       <r>   -5.9662    1.0000 </r>
       <r>   -5.9655    1.0000 </r>
       <r>   -5.9168    1.0000 </r>
       <r>   -5.9162    1.0000 </r>
       <r>   -5.9162    1.0000 </r>
       <r>   -5.9157    1.0000 </r>
       <r>   -5.6686    1.0000 </r>
       <r>   -5.6680    1.0000 </r>
       <r>   -5.6679    1.0000 </r>
       <r>   -5.6672    1.0000 </r>
       <r>   -5.3171    1.0000 </r>
       <r>   -5.3166    1.0000 </r>
       <r>   -5.3166    1.0000 </r>
       <r>   -5.3161    1.0000 </r>
       <r>   -5.3031    1.0000 </r>
       <r>   -5.1438    1.0000 </r>
       <r>   -5.1430    1.0000 </r>
       <r>   -5.1430    1.0000 </r>
       <r>   -5.1423    1.0000 </r>
       <r>   -5.0358    1.0000 </r>
       <r>   -5.0351    1.0000 </r>
       <r>   -5.0351    1.0000 </r>
       <r>   -5.0345    1.0000 </r>
       <r>   -4.6706    1.0000 </r>
       <r>   -4.6691    1.0000 </r>
       <r>   -4.6690    1.0000 </r>
       <r>   -4.6690    1.0000 </r>
       <r>   -4.6690    1.0000 </r>
       <r>   -4.6690    1.0000 </r>
       <r>   -4.6689    1.0000 </r>
       <r>   -4.6675    1.0000 </r>
       <r>   -4.5777    1.0000 </r>
       <r>   -4.5771    1.0000 </r>
       <r>   -4.5771    1.0000 </r>
       <r>   -4.5765    1.0000 </r>
       <r>   -4.4959    1.0000 </r>
       <r>   -4.4946    1.0000 </r>
       <r>   -4.4946    1.0000 </r>
       <r>   -4.4946    1.0000 </r>
       <r>   -4.4946    1.0000 </r>
       <r>   -4.4946    1.0000 </r>
       <r>   -4.4945    1.0000 </r>
       <r>   -4.4933    1.0000 </r>
       <r>   -4.3641    1.0000 </r>
       <r>   -3.9059    1.0000 </r>
       <r>   -3.9054    1.0000 </r>
       <r>   -3.9054    1.0000 </r>
       <r>   -3.9049    1.0000 </r>
       <r>   -3.8944    1.0000 </r>
       <r>   -3.8940    1.0000 </r>
       <r>   -3.8940    1.0000 </r>
       <r>   -3.8937    1.0000 </r>
       <r>   -3.5414    1.0000 </r>
       <r>   -3.5414    1.0000 </r>
       <r>   -3.4971    1.0000 </r>
       <r>   -3.4971    1.0000 </r>
       <r>   -2.7026    1.0000 </r>
       <r>   -2.7026    1.0000 </r>
       <r>   -2.6272    1.0000 </r>
       <r>   -2.6272    1.0000 </r>
       <r>   -2.2765    1.0000 </r>
       <r>   -2.2759    1.0000 </r>
       <r>   -2.2759    1.0000 </r>
       <r>   -2.2753    1.0000 </r>
       <r>   -2.1795    1.0000 </r>
       <r>   -2.1788    1.0000 </r>
       <r>   -2.1787    1.0000 </r>
       <r>   -2.1780    1.0000 </r>
       <r>   -1.8899    1.0000 </r>
       <r>   -1.8887    1.0000 </r>
       <r>   -1.8887    1.0000 </r>
       <r>   -1.8886    1.0000 </r>
       <r>   -1.8885    1.0000 </r>
       <r>   -1.8884    1.0000 </r>
       <r>   -1.8884    1.0000 </r>
       <r>   -1.8872    1.0000 </r>
       <r>   -1.7931    1.0000 </r>
       <r>   -1.7543    1.0000 </r>
       <r>   -1.7536    1.0000 </r>
       <r>   -1.7536    1.0000 </r>
       <r>   -1.7529    1.0000 </r>
       <r>   -1.5194    1.0000 </r>
       <r>   -1.5187    1.0000 </r>
       <r>   -1.5186    1.0000 </r>
       <r>   -1.5179    1.0000 </r>
       <r>   -1.3723    1.0000 </r>
       <r>   -1.3710    1.0000 </r>
       <r>   -1.3710    1.0000 </r>
       <r>   -1.3709    1.0000 </r>
       <r>   -1.3709    1.0000 </r>
       <r>   -1.3709    1.0000 </r>
       <r>   -1.3708    1.0000 </r>
       <r>   -1.3695    1.0000 </r>
       <r>   -1.1902    1.0000 </r>
       <r>   -1.1895    1.0000 </r>
       <r>   -1.1895    1.0000 </r>
       <r>   -1.1887    1.0000 </r>
       <r>   -0.8865    1.0000 </r>
       <r>   -0.8858    1.0000 </r>
       <r>   -0.8858    1.0000 </r>
       <r>   -0.8850    1.0000 </r>
       <r>   -0.4290    1.0000 </r>
       <r>   -0.0577    1.0000 </r>
       <r>   -0.0569    1.0000 </r>
       <r>   -0.0569    1.0000 </r>
       <r>   -0.0561    1.0000 </r>
       <r>   -0.0300    1.0000 </r>
       <r>   -0.0293    1.0000 </r>
       <r>   -0.0293    1.0000 </r>
       <r>   -0.0285    1.0000 </r>
       <r>    0.6822    1.0000 </r>
       <r>    0.6829    1.0000 </r>
       <r>    0.6829    1.0000 </r>
       <r>    0.6836    1.0000 </r>
       <r>    1.0026    1.0000 </r>
       <r>    1.0028    1.0000 </r>
       <r>    1.0029    1.0000 </r>
       <r>    1.0032    1.0000 </r>
       <r>    1.0066    1.0000 </r>
       <r>    1.0068    1.0000 </r>
       <r>    1.0070    1.0000 </r>
       <r>    1.0072    1.0000 </r>
       <r>    1.0454    1.0000 </r>
       <r>    1.0455    1.0000 </r>
       <r>    1.0459    1.0000 </r>
       <r>    1.0460    1.0000 </r>
       <r>    1.5119    1.0000 </r>
       <r>    1.5119    1.0000 </r>
       <r>    1.5590    1.0000 </r>
       <r>    1.5590    1.0000 </r>
       <r>    1.5953    1.0000 </r>
       <r>    1.5955    1.0000 </r>
       <r>    1.5955    1.0000 </r>
       <r>    1.5958    1.0000 </r>
       <r>    1.5959    1.0000 </r>
       <r>    1.5962    1.0000 </r>
       <r>    1.5962    1.0000 </r>
       <r>    1.5964    1.0000 </r>
       <r>    1.7132    1.0000 </r>
       <r>    1.7134    1.0000 </r>
       <r>    1.7135    1.0000 </r>
       <r>    1.7138    1.0000 </r>
       <r>    1.7138    1.0000 </r>
       <r>    1.7141    1.0000 </r>
       <r>    1.7142    1.0000 </r>
       <r>    1.7144    1.0000 </r>
       <r>    1.7995    1.0000 </r>
       <r>    1.8001    1.0000 </r>
       <r>    1.8001    1.0000 </r>
       <r>    1.8007    1.0000 </r>
       <r>    1.9521    1.0000 </r>
       <r>    1.9522    1.0000 </r>
       <r>    1.9653    1.0000 </r>
       <r>    1.9653    1.0000 </r>
       <r>    2.0014    1.0000 </r>
       <r>    2.0021    1.0000 </r>
       <r>    2.0021    1.0000 </r>
       <r>    2.0026    1.0000 </r>
       <r>    2.0385    1.0000 </r>
       <r>    2.0385    1.0000 </r>
       <r>    2.0391    1.0000 </r>
       <r>    2.0391    1.0000 </r>
       <r>    2.0750    1.0000 </r>
       <r>    2.0753    1.0000 </r>
       <r>    2.0756    1.0000 </r>
       <r>    2.0759    1.0000 </r>
       <r>    2.3327    1.0000 </r>
       <r>    2.3327    1.0000 </r>
       <r>    2.4804    1.0000 </r>
       <r>    2.4808    1.0000 </r>
       <r>    2.4811    1.0000 </r>
       <r>    2.4811    1.0000 </r>
       <r>    2.4813    1.0000 </r>
       <r>    2.4813    1.0000 </r>
       <r>    2.4816    1.0000 </r>
       <r>    2.4819    1.0000 </r>
       <r>    2.5346    1.0000 </r>
       <r>    2.5660    1.0000 </r>
       <r>    2.5667    1.0000 </r>
       <r>    2.5667    1.0000 </r>
       <r>    2.5674    1.0000 </r>
       <r>    2.6636    1.0000 </r>
       <r>    2.6636    1.0000 </r>
       <r>    2.6680    1.0000 </r>
       <r>    2.6683    1.0000 </r>
       <r>    2.6683    1.0000 </r>
       <r>    2.6687    1.0000 </r>
       <r>    2.7779    1.0000 </r>
       <r>    2.7779    1.0000 </r>
       <r>    2.7783    1.0000 </r>
       <r>    2.7784    1.0000 </r>
       <r>    2.9441    1.0000 </r>
       <r>    2.9446    1.0000 </r>
       <r>    2.9449    1.0000 </r>
       <r>    2.9450    1.0000 </r>
       <r>    2.9450    1.0000 </r>
       <r>    2.9451    1.0000 </r>
       <r>    2.9454    1.0000 </r>
       <r>    2.9459    1.0000 </r>
       <r>    3.0068    1.0000 </r>
       <r>    3.0074    1.0000 </r>
       <r>    3.0075    1.0000 </r>
       <r>    3.0080    1.0000 </r>
       <r>    3.1098    1.0000 </r>
       <r>    3.1105    1.0000 </r>
       <r>    3.1105    1.0000 </r>
       <r>    3.1112    1.0000 </r>
       <r>    3.2382    1.0000 </r>
       <r>    3.2385    1.0000 </r>
       <r>    3.2385    1.0000 </r>
       <r>    3.2388    1.0000 </r>
       <r>    3.4317    1.0000 </r>
       <r>    3.4321    1.0000 </r>
       <r>    3.4323    1.0000 </r>
       <r>    3.4327    1.0000 </r>
       <r>    3.6841    1.0000 </r>
       <r>    3.6847    1.0000 </r>
       <r>    3.6847    1.0000 </r>
       <r>    3.6851    1.0000 </r>
       <r>    3.6963    1.0000 </r>
       <r>    3.6970    1.0000 </r>
       <r>    3.6970    1.0000 </r>
       <r>    3.6978    1.0000 </r>
       <r>    3.7497    1.0000 </r>
       <r>    3.7502    1.0000 </r>
       <r>    3.7503    1.0000 </r>
       <r>    3.7503    1.0000 </r>
       <r>    3.7505    1.0000 </r>
       <r>    3.7506    1.0000 </r>
       <r>    3.7507    1.0000 </r>
       <r>    3.7513    1.0000 </r>
       <r>    3.7792    1.0000 </r>
       <r>    3.7796    1.0000 </r>
       <r>    3.7800    1.0000 </r>
       <r>    3.7804    1.0000 </r>
       <r>    3.8032    1.0000 </r>
       <r>    3.8036    1.0000 </r>
       <r>    3.8037    1.0000 </r>
       <r>    3.8040    1.0000 </r>
       <r>    3.9049    1.0000 </r>
       <r>    3.9050    1.0000 </r>
       <r>    4.0441    1.0000 </r>
       <r>    4.6754    1.0000 </r>
       <r>    4.6754    1.0000 </r>
       <r>    4.7145    1.0000 </r>
       <r>    4.7148    1.0000 </r>
       <r>    4.7148    1.0000 </r>
       <r>    4.7150    1.0000 </r>
       <r>    5.7217    0.0000 </r>
       <r>    5.8500    0.0000 </r>
       <r>    6.3490    0.0000 </r>
       <r>    6.3490    0.0000 </r>
       <r>    6.3828    0.0000 </r>
       <r>    6.3829    0.0000 </r>
       <r>    6.3829    0.0000 </r>
       <r>    6.3831    0.0000 </r>
       <r>    6.4296    0.0000 </r>
       <r>    6.5386    0.0000 </r>
       <r>    6.5390    0.0000 </r>
       <r>    6.5390    0.0000 </r>
       <r>    6.5393    0.0000 </r>
       <r>    6.6425    0.0000 </r>
       <r>    6.6425    0.0000 </r>
       <r>    6.7639    0.0000 </r>
       <r>    6.8301    0.0000 </r>
       <r>    6.8305    0.0000 </r>
       <r>    6.8309    0.0000 </r>
       <r>    6.8309    0.0000 </r>
       <r>    6.8311    0.0000 </r>
       <r>    6.8311    0.0000 </r>
       <r>    6.8314    0.0000 </r>
       <r>    6.8318    0.0000 </r>
       <r>    6.8438    0.0000 </r>
       <r>    6.8441    0.0000 </r>
       <r>    6.8441    0.0000 </r>
       <r>    6.8444    0.0000 </r>
       <r>    6.8572    0.0000 </r>
       <r>    6.8573    0.0000 </r>
       <r>    6.8580    0.0000 </r>
       <r>    6.8581    0.0000 </r>
       <r>    6.9959    0.0000 </r>
       <r>    6.9960    0.0000 </r>
       <r>    6.9960    0.0000 </r>
       <r>    6.9961    0.0000 </r>
       <r>    7.1382    0.0000 </r>
       <r>    7.1386    0.0000 </r>
       <r>    7.1386    0.0000 </r>
       <r>    7.1390    0.0000 </r>
       <r>    7.1866    0.0000 </r>
       <r>    7.2115    0.0000 </r>
       <r>    7.2117    0.0000 </r>
       <r>    7.2117    0.0000 </r>
       <r>    7.2119    0.0000 </r>
       <r>    7.3330    0.0000 </r>
       <r>    7.3661    0.0000 </r>
       <r>    7.3663    0.0000 </r>
       <r>    7.3669    0.0000 </r>
       <r>    7.3669    0.0000 </r>
       <r>    7.3670    0.0000 </r>
       <r>    7.3670    0.0000 </r>
       <r>    7.3677    0.0000 </r>
       <r>    7.3678    0.0000 </r>
       <r>    7.5118    0.0000 </r>
       <r>    7.5328    0.0000 </r>
       <r>    7.5331    0.0000 </r>
       <r>    7.5334    0.0000 </r>
       <r>    7.5337    0.0000 </r>
       <r>    7.7103    0.0000 </r>
       <r>    7.7103    0.0000 </r>
       <r>    8.0046    0.0000 </r>
       <r>    8.0046    0.0000 </r>
       <r>    8.0050    0.0000 </r>
       <r>    8.0050    0.0000 </r>
       <r>    8.0150    0.0000 </r>
       <r>    8.0150    0.0000 </r>
       <r>    8.1262    0.0000 </r>
       <r>    8.1263    0.0000 </r>
       <r>    8.1269    0.0000 </r>
       <r>    8.1269    0.0000 </r>
       <r>    8.1270    0.0000 </r>
       <r>    8.1270    0.0000 </r>
       <r>    8.1276    0.0000 </r>
       <r>    8.1277    0.0000 </r>
       <r>    8.2143    0.0000 </r>
       <r>    8.2143    0.0000 </r>
       <r>    8.2439    0.0000 </r>
       <r>    8.2443    0.0000 </r>
       <r>    8.2443    0.0000 </r>
       <r>    8.2448    0.0000 </r>
       <r>    8.2784    0.0000 </r>
       <r>    8.2784    0.0000 </r>
       <r>    8.2793    0.0000 </r>
       <r>    8.2793    0.0000 </r>
       <r>    8.3551    0.0000 </r>
       <r>    8.3553    0.0000 </r>
       <r>    8.3557    0.0000 </r>
       <r>    8.3559    0.0000 </r>
       <r>    8.3671    0.0000 </r>
       <r>    8.3677    0.0000 </r>
       <r>    8.3677    0.0000 </r>
       <r>    8.3683    0.0000 </r>
       <r>    8.3935    0.0000 </r>
       <r>    8.3937    0.0000 </r>
       <r>    8.3940    0.0000 </r>
       <r>    8.3942    0.0000 </r>
       <r>    8.5094    0.0000 </r>
       <r>    8.5603    0.0000 </r>
       <r>    8.5609    0.0000 </r>
       <r>    8.5609    0.0000 </r>
       <r>    8.5614    0.0000 </r>
       <r>    8.6525    0.0000 </r>
       <r>    8.6531    0.0000 </r>
       <r>    8.6531    0.0000 </r>
       <r>    8.6537    0.0000 </r>
       <r>    8.8672    0.0000 </r>
       <r>    8.8680    0.0000 </r>
       <r>    8.8680    0.0000 </r>
       <r>    8.8688    0.0000 </r>
       <r>    8.9375    0.0000 </r>
       <r>    8.9380    0.0000 </r>
       <r>    8.9381    0.0000 </r>
       <r>    8.9385    0.0000 </r>
       <r>    8.9430    0.0000 </r>
       <r>    8.9431    0.0000 </r>
       <r>    8.9438    0.0000 </r>
       <r>    8.9438    0.0000 </r>
       <r>    8.9439    0.0000 </r>
       <r>    8.9440    0.0000 </r>
       <r>    8.9448    0.0000 </r>
       <r>    8.9449    0.0000 </r>
       <r>    9.1180    0.0000 </r>
       <r>    9.1183    0.0000 </r>
       <r>    9.1188    0.0000 </r>
       <r>    9.1207    0.0000 </r>
       <r>    9.2616    0.0000 </r>
       <r>    9.2691    0.0000 </r>
      </set>
      <set comment="kpoint 7">
       <r>  -19.2229    1.0000 </r>
       <r>  -19.2229    1.0000 </r>
       <r>  -19.2229    1.0000 </r>
       <r>  -19.2228    1.0000 </r>
       <r>  -19.2223    1.0000 </r>
       <r>  -19.2220    1.0000 </r>
       <r>  -19.2220    1.0000 </r>
       <r>  -19.2219    1.0000 </r>
       <r>  -19.2219    1.0000 </r>
       <r>  -19.2217    1.0000 </r>
       <r>  -19.2217    1.0000 </r>
       <r>  -19.2206    1.0000 </r>
       <r>  -19.2205    1.0000 </r>
       <r>  -19.2204    1.0000 </r>
       <r>  -19.2203    1.0000 </r>
       <r>  -19.2202    1.0000 </r>
       <r>  -19.2201    1.0000 </r>
       <r>  -19.2200    1.0000 </r>
       <r>  -19.2200    1.0000 </r>
       <r>  -19.2199    1.0000 </r>
       <r>  -19.2198    1.0000 </r>
       <r>  -19.2197    1.0000 </r>
       <r>  -19.2197    1.0000 </r>
       <r>  -19.2191    1.0000 </r>
       <r>  -19.2191    1.0000 </r>
       <r>  -19.2191    1.0000 </r>
       <r>  -19.2190    1.0000 </r>
       <r>  -19.2190    1.0000 </r>
       <r>  -19.2189    1.0000 </r>
       <r>  -19.2189    1.0000 </r>
       <r>  -19.2189    1.0000 </r>
       <r>  -19.2189    1.0000 </r>
       <r>  -19.2188    1.0000 </r>
       <r>  -19.2188    1.0000 </r>
       <r>  -19.2187    1.0000 </r>
       <r>  -19.2187    1.0000 </r>
       <r>  -19.2187    1.0000 </r>
       <r>  -19.2187    1.0000 </r>
       <r>  -19.2186    1.0000 </r>
       <r>  -19.2186    1.0000 </r>
       <r>  -19.2185    1.0000 </r>
       <r>  -19.2185    1.0000 </r>
       <r>  -19.2184    1.0000 </r>
       <r>  -19.2184    1.0000 </r>
       <r>  -19.2184    1.0000 </r>
       <r>  -19.2183    1.0000 </r>
       <r>  -19.2182    1.0000 </r>
       <r>  -19.2181    1.0000 </r>
       <r>  -19.2181    1.0000 </r>
       <r>  -19.2181    1.0000 </r>
       <r>  -19.2181    1.0000 </r>
       <r>  -19.2180    1.0000 </r>
       <r>  -19.2180    1.0000 </r>
       <r>  -19.2180    1.0000 </r>
       <r>  -19.2180    1.0000 </r>
       <r>  -19.2179    1.0000 </r>
       <r>  -19.2179    1.0000 </r>
       <r>  -19.2178    1.0000 </r>
       <r>  -19.2178    1.0000 </r>
       <r>  -19.2178    1.0000 </r>
       <r>  -19.2177    1.0000 </r>
       <r>  -19.2177    1.0000 </r>
       <r>  -19.2177    1.0000 </r>
       <r>  -19.2176    1.0000 </r>
       <r>  -19.2171    1.0000 </r>
       <r>  -19.2166    1.0000 </r>
       <r>  -19.2163    1.0000 </r>
       <r>  -19.2163    1.0000 </r>
       <r>  -19.2163    1.0000 </r>
       <r>  -19.2162    1.0000 </r>
       <r>  -19.2154    1.0000 </r>
       <r>  -19.2154    1.0000 </r>
       <r>  -19.2152    1.0000 </r>
       <r>  -19.2151    1.0000 </r>
       <r>  -19.2150    1.0000 </r>
       <r>  -19.2145    1.0000 </r>
       <r>  -19.2144    1.0000 </r>
       <r>  -19.2144    1.0000 </r>
       <r>  -19.2143    1.0000 </r>
       <r>  -19.2143    1.0000 </r>
       <r>  -19.2140    1.0000 </r>
       <r>  -19.2140    1.0000 </r>
       <r>  -19.2139    1.0000 </r>
       <r>  -19.2139    1.0000 </r>
       <r>  -19.2138    1.0000 </r>
       <r>  -19.2138    1.0000 </r>
       <r>  -19.2138    1.0000 </r>
       <r>  -19.2137    1.0000 </r>
       <r>  -19.2137    1.0000 </r>
       <r>  -19.2136    1.0000 </r>
       <r>  -19.2136    1.0000 </r>
       <r>  -19.2135    1.0000 </r>
       <r>  -19.2135    1.0000 </r>
       <r>  -19.2135    1.0000 </r>
       <r>  -19.2134    1.0000 </r>
       <r>  -19.2133    1.0000 </r>
       <r>  -19.2133    1.0000 </r>
       <r>  -19.2132    1.0000 </r>
       <r>  -19.2132    1.0000 </r>
       <r>  -19.2132    1.0000 </r>
       <r>  -19.2131    1.0000 </r>
       <r>  -19.2131    1.0000 </r>
       <r>  -19.2131    1.0000 </r>
       <r>  -19.2131    1.0000 </r>
       <r>  -19.2131    1.0000 </r>
       <r>  -19.2130    1.0000 </r>
       <r>  -19.2130    1.0000 </r>
       <r>  -19.2130    1.0000 </r>
       <r>  -19.2130    1.0000 </r>
       <r>  -19.2129    1.0000 </r>
       <r>  -19.2129    1.0000 </r>
       <r>  -19.2129    1.0000 </r>
       <r>  -19.2128    1.0000 </r>
       <r>  -19.2128    1.0000 </r>
       <r>  -19.2128    1.0000 </r>
       <r>  -19.2128    1.0000 </r>
       <r>  -19.2127    1.0000 </r>
       <r>  -19.2127    1.0000 </r>
       <r>  -19.2126    1.0000 </r>
       <r>  -19.2126    1.0000 </r>
       <r>  -19.2125    1.0000 </r>
       <r>  -19.2125    1.0000 </r>
       <r>  -19.2123    1.0000 </r>
       <r>  -19.2123    1.0000 </r>
       <r>  -19.2123    1.0000 </r>
       <r>  -19.2123    1.0000 </r>
       <r>  -19.2122    1.0000 </r>
       <r>  -19.2122    1.0000 </r>
       <r>  -19.2122    1.0000 </r>
       <r>  -19.2122    1.0000 </r>
       <r>  -19.2121    1.0000 </r>
       <r>  -19.2121    1.0000 </r>
       <r>  -19.2121    1.0000 </r>
       <r>  -19.2120    1.0000 </r>
       <r>  -19.2120    1.0000 </r>
       <r>  -19.2119    1.0000 </r>
       <r>  -19.2118    1.0000 </r>
       <r>  -19.2118    1.0000 </r>
       <r>  -19.2118    1.0000 </r>
       <r>  -19.2117    1.0000 </r>
       <r>  -19.2116    1.0000 </r>
       <r>  -19.2115    1.0000 </r>
       <r>  -19.2114    1.0000 </r>
       <r>  -19.2113    1.0000 </r>
       <r>  -19.2112    1.0000 </r>
       <r>  -19.2111    1.0000 </r>
       <r>  -19.2110    1.0000 </r>
       <r>  -19.2108    1.0000 </r>
       <r>  -19.2108    1.0000 </r>
       <r>  -19.2107    1.0000 </r>
       <r>  -19.2107    1.0000 </r>
       <r>  -19.2106    1.0000 </r>
       <r>  -19.2105    1.0000 </r>
       <r>  -19.2105    1.0000 </r>
       <r>  -19.2104    1.0000 </r>
       <r>  -19.2101    1.0000 </r>
       <r>  -19.2101    1.0000 </r>
       <r>  -19.2100    1.0000 </r>
       <r>  -19.2100    1.0000 </r>
       <r>  -19.2098    1.0000 </r>
       <r>  -19.2095    1.0000 </r>
       <r>  -19.2095    1.0000 </r>
       <r>  -19.2094    1.0000 </r>
       <r>  -19.2094    1.0000 </r>
       <r>  -19.2092    1.0000 </r>
       <r>  -19.2092    1.0000 </r>
       <r>  -19.2092    1.0000 </r>
       <r>  -19.2091    1.0000 </r>
       <r>  -19.2091    1.0000 </r>
       <r>  -19.2091    1.0000 </r>
       <r>  -19.2091    1.0000 </r>
       <r>  -19.2091    1.0000 </r>
       <r>  -19.2090    1.0000 </r>
       <r>  -19.2090    1.0000 </r>
       <r>  -19.2089    1.0000 </r>
       <r>  -19.2089    1.0000 </r>
       <r>  -19.2088    1.0000 </r>
       <r>  -19.2088    1.0000 </r>
       <r>  -19.2087    1.0000 </r>
       <r>  -19.2087    1.0000 </r>
       <r>  -19.2084    1.0000 </r>
       <r>  -19.2080    1.0000 </r>
       <r>  -19.2080    1.0000 </r>
       <r>  -19.2080    1.0000 </r>
       <r>  -19.2079    1.0000 </r>
       <r>  -19.2079    1.0000 </r>
       <r>  -19.2079    1.0000 </r>
       <r>  -19.2078    1.0000 </r>
       <r>  -19.2076    1.0000 </r>
       <r>  -19.2076    1.0000 </r>
       <r>  -19.2076    1.0000 </r>
       <r>  -19.2075    1.0000 </r>
       <r>  -19.1958    1.0000 </r>
       <r>  -19.1957    1.0000 </r>
       <r>  -19.1957    1.0000 </r>
       <r>  -19.1955    1.0000 </r>
       <r>  -19.1953    1.0000 </r>
       <r>  -19.1953    1.0000 </r>
       <r>  -19.1953    1.0000 </r>
       <r>  -19.1952    1.0000 </r>
       <r>  -19.1952    1.0000 </r>
       <r>  -19.1949    1.0000 </r>
       <r>  -19.1949    1.0000 </r>
       <r>  -19.1947    1.0000 </r>
       <r>  -19.1947    1.0000 </r>
       <r>  -19.1945    1.0000 </r>
       <r>  -19.1944    1.0000 </r>
       <r>  -19.1941    1.0000 </r>
       <r>  -19.1940    1.0000 </r>
       <r>  -19.1939    1.0000 </r>
       <r>  -19.1939    1.0000 </r>
       <r>  -19.1939    1.0000 </r>
       <r>  -19.1938    1.0000 </r>
       <r>  -19.1938    1.0000 </r>
       <r>  -19.1937    1.0000 </r>
       <r>  -19.1936    1.0000 </r>
       <r>  -19.1936    1.0000 </r>
       <r>  -19.1935    1.0000 </r>
       <r>  -19.1935    1.0000 </r>
       <r>  -19.1935    1.0000 </r>
       <r>  -19.1934    1.0000 </r>
       <r>  -19.1934    1.0000 </r>
       <r>  -19.1934    1.0000 </r>
       <r>  -19.1933    1.0000 </r>
       <r>  -19.1933    1.0000 </r>
       <r>  -19.1932    1.0000 </r>
       <r>  -19.1932    1.0000 </r>
       <r>  -19.1930    1.0000 </r>
       <r>  -19.1930    1.0000 </r>
       <r>  -19.1930    1.0000 </r>
       <r>  -19.1929    1.0000 </r>
       <r>  -19.1929    1.0000 </r>
       <r>  -19.1928    1.0000 </r>
       <r>  -19.1928    1.0000 </r>
       <r>  -19.1927    1.0000 </r>
       <r>  -19.1927    1.0000 </r>
       <r>  -19.1927    1.0000 </r>
       <r>  -19.1926    1.0000 </r>
       <r>  -19.1926    1.0000 </r>
       <r>  -19.1926    1.0000 </r>
       <r>  -19.1925    1.0000 </r>
       <r>  -19.1925    1.0000 </r>
       <r>  -19.1924    1.0000 </r>
       <r>  -19.1924    1.0000 </r>
       <r>  -19.1922    1.0000 </r>
       <r>  -19.1922    1.0000 </r>
       <r>  -19.1922    1.0000 </r>
       <r>  -19.1921    1.0000 </r>
       <r>  -19.1921    1.0000 </r>
       <r>  -19.1921    1.0000 </r>
       <r>  -19.1920    1.0000 </r>
       <r>  -19.1919    1.0000 </r>
       <r>  -19.1919    1.0000 </r>
       <r>  -19.1918    1.0000 </r>
       <r>  -19.1918    1.0000 </r>
       <r>  -19.1918    1.0000 </r>
       <r>  -19.1918    1.0000 </r>
       <r>  -19.1917    1.0000 </r>
       <r>  -19.1916    1.0000 </r>
       <r>  -19.1914    1.0000 </r>
       <r>  -19.1914    1.0000 </r>
       <r>  -19.1913    1.0000 </r>
       <r>  -19.1913    1.0000 </r>
       <r>  -19.1912    1.0000 </r>
       <r>  -19.1912    1.0000 </r>
       <r>  -19.1912    1.0000 </r>
       <r>  -19.1911    1.0000 </r>
       <r>  -19.1911    1.0000 </r>
       <r>  -19.1910    1.0000 </r>
       <r>  -19.1910    1.0000 </r>
       <r>  -19.1909    1.0000 </r>
       <r>  -19.1909    1.0000 </r>
       <r>  -19.1909    1.0000 </r>
       <r>  -19.1909    1.0000 </r>
       <r>  -19.1909    1.0000 </r>
       <r>  -19.1908    1.0000 </r>
       <r>  -19.1908    1.0000 </r>
       <r>  -19.1908    1.0000 </r>
       <r>  -19.1908    1.0000 </r>
       <r>  -19.1908    1.0000 </r>
       <r>  -19.1907    1.0000 </r>
       <r>  -19.1907    1.0000 </r>
       <r>  -19.1906    1.0000 </r>
       <r>  -19.1906    1.0000 </r>
       <r>  -19.1906    1.0000 </r>
       <r>  -19.1905    1.0000 </r>
       <r>  -19.1905    1.0000 </r>
       <r>  -19.1904    1.0000 </r>
       <r>  -19.1904    1.0000 </r>
       <r>  -19.1904    1.0000 </r>
       <r>  -19.1904    1.0000 </r>
       <r>  -19.1903    1.0000 </r>
       <r>  -19.1903    1.0000 </r>
       <r>  -19.1903    1.0000 </r>
       <r>  -19.1902    1.0000 </r>
       <r>  -19.1902    1.0000 </r>
       <r>  -19.1901    1.0000 </r>
       <r>  -19.1901    1.0000 </r>
       <r>  -19.1900    1.0000 </r>
       <r>  -19.1900    1.0000 </r>
       <r>  -19.1900    1.0000 </r>
       <r>  -19.1898    1.0000 </r>
       <r>  -19.1898    1.0000 </r>
       <r>  -19.1896    1.0000 </r>
       <r>  -19.1896    1.0000 </r>
       <r>  -19.1895    1.0000 </r>
       <r>  -19.1895    1.0000 </r>
       <r>  -19.1894    1.0000 </r>
       <r>  -19.1894    1.0000 </r>
       <r>  -19.1893    1.0000 </r>
       <r>  -19.1892    1.0000 </r>
       <r>  -19.1888    1.0000 </r>
       <r>  -19.1888    1.0000 </r>
       <r>  -19.1887    1.0000 </r>
       <r>  -19.1887    1.0000 </r>
       <r>  -19.1886    1.0000 </r>
       <r>  -19.1885    1.0000 </r>
       <r>  -19.1884    1.0000 </r>
       <r>  -19.1884    1.0000 </r>
       <r>  -19.1883    1.0000 </r>
       <r>   -6.8523    1.0000 </r>
       <r>   -6.7679    1.0000 </r>
       <r>   -6.7675    1.0000 </r>
       <r>   -6.5171    1.0000 </r>
       <r>   -6.5167    1.0000 </r>
       <r>   -6.1940    1.0000 </r>
       <r>   -6.1125    1.0000 </r>
       <r>   -6.1120    1.0000 </r>
       <r>   -6.1119    1.0000 </r>
       <r>   -6.1113    1.0000 </r>
       <r>   -5.8693    1.0000 </r>
       <r>   -5.8685    1.0000 </r>
       <r>   -5.5856    1.0000 </r>
       <r>   -5.5851    1.0000 </r>
       <r>   -5.5850    1.0000 </r>
       <r>   -5.5842    1.0000 </r>
       <r>   -5.5422    1.0000 </r>
       <r>   -5.5418    1.0000 </r>
       <r>   -5.4766    1.0000 </r>
       <r>   -5.4760    1.0000 </r>
       <r>   -5.4760    1.0000 </r>
       <r>   -5.4755    1.0000 </r>
       <r>   -5.3539    1.0000 </r>
       <r>   -5.3532    1.0000 </r>
       <r>   -5.2156    1.0000 </r>
       <r>   -5.2152    1.0000 </r>
       <r>   -5.0343    1.0000 </r>
       <r>   -5.0340    1.0000 </r>
       <r>   -5.0339    1.0000 </r>
       <r>   -5.0332    1.0000 </r>
       <r>   -4.9625    1.0000 </r>
       <r>   -4.9619    1.0000 </r>
       <r>   -4.8137    1.0000 </r>
       <r>   -4.8129    1.0000 </r>
       <r>   -4.7511    1.0000 </r>
       <r>   -4.7506    1.0000 </r>
       <r>   -4.7172    1.0000 </r>
       <r>   -4.7167    1.0000 </r>
       <r>   -4.6089    1.0000 </r>
       <r>   -4.6082    1.0000 </r>
       <r>   -4.6082    1.0000 </r>
       <r>   -4.6077    1.0000 </r>
       <r>   -4.4142    1.0000 </r>
       <r>   -4.4138    1.0000 </r>
       <r>   -4.4137    1.0000 </r>
       <r>   -4.4128    1.0000 </r>
       <r>   -4.3014    1.0000 </r>
       <r>   -4.3009    1.0000 </r>
       <r>   -4.1307    1.0000 </r>
       <r>   -4.1303    1.0000 </r>
       <r>   -4.1240    1.0000 </r>
       <r>   -4.1218    1.0000 </r>
       <r>   -4.1213    1.0000 </r>
       <r>   -4.1212    1.0000 </r>
       <r>   -4.1208    1.0000 </r>
       <r>   -4.1187    1.0000 </r>
       <r>   -4.1181    1.0000 </r>
       <r>   -3.7910    1.0000 </r>
       <r>   -3.7907    1.0000 </r>
       <r>   -3.7906    1.0000 </r>
       <r>   -3.7902    1.0000 </r>
       <r>   -3.7035    1.0000 </r>
       <r>   -3.7029    1.0000 </r>
       <r>   -3.5802    1.0000 </r>
       <r>   -2.6289    1.0000 </r>
       <r>   -2.4333    1.0000 </r>
       <r>   -2.4327    1.0000 </r>
       <r>   -2.3761    1.0000 </r>
       <r>   -2.3754    1.0000 </r>
       <r>   -2.3753    1.0000 </r>
       <r>   -2.3748    1.0000 </r>
       <r>   -2.0637    1.0000 </r>
       <r>   -2.0631    1.0000 </r>
       <r>   -2.0433    1.0000 </r>
       <r>   -2.0429    1.0000 </r>
       <r>   -2.0428    1.0000 </r>
       <r>   -2.0419    1.0000 </r>
       <r>   -2.0216    1.0000 </r>
       <r>   -1.9569    1.0000 </r>
       <r>   -1.9560    1.0000 </r>
       <r>   -1.9301    1.0000 </r>
       <r>   -1.9294    1.0000 </r>
       <r>   -1.8638    1.0000 </r>
       <r>   -1.8632    1.0000 </r>
       <r>   -1.8300    1.0000 </r>
       <r>   -1.8294    1.0000 </r>
       <r>   -1.7272    1.0000 </r>
       <r>   -1.7270    1.0000 </r>
       <r>   -1.7269    1.0000 </r>
       <r>   -1.7257    1.0000 </r>
       <r>   -1.7041    1.0000 </r>
       <r>   -1.7033    1.0000 </r>
       <r>   -1.7032    1.0000 </r>
       <r>   -1.7028    1.0000 </r>
       <r>   -1.4931    1.0000 </r>
       <r>   -1.4920    1.0000 </r>
       <r>   -1.4918    1.0000 </r>
       <r>   -1.4917    1.0000 </r>
       <r>   -1.2166    1.0000 </r>
       <r>   -1.2159    1.0000 </r>
       <r>   -1.1756    1.0000 </r>
       <r>   -1.1750    1.0000 </r>
       <r>   -0.9995    1.0000 </r>
       <r>   -0.9989    1.0000 </r>
       <r>   -0.8620    1.0000 </r>
       <r>   -0.8613    1.0000 </r>
       <r>   -0.5877    1.0000 </r>
       <r>   -0.5869    1.0000 </r>
       <r>   -0.4900    1.0000 </r>
       <r>   -0.4892    1.0000 </r>
       <r>   -0.4890    1.0000 </r>
       <r>   -0.4887    1.0000 </r>
       <r>   -0.3133    1.0000 </r>
       <r>   -0.3128    1.0000 </r>
       <r>   -0.3128    1.0000 </r>
       <r>   -0.3118    1.0000 </r>
       <r>    0.2645    1.0000 </r>
       <r>    0.2651    1.0000 </r>
       <r>    0.7354    1.0000 </r>
       <r>    0.7361    1.0000 </r>
       <r>    0.7363    1.0000 </r>
       <r>    0.7366    1.0000 </r>
       <r>    0.8141    1.0000 </r>
       <r>    0.9581    1.0000 </r>
       <r>    0.9583    1.0000 </r>
       <r>    0.9584    1.0000 </r>
       <r>    0.9587    1.0000 </r>
       <r>    0.9594    1.0000 </r>
       <r>    0.9758    1.0000 </r>
       <r>    0.9761    1.0000 </r>
       <r>    1.1453    1.0000 </r>
       <r>    1.1456    1.0000 </r>
       <r>    1.2444    1.0000 </r>
       <r>    1.2446    1.0000 </r>
       <r>    1.2450    1.0000 </r>
       <r>    1.2452    1.0000 </r>
       <r>    1.3429    1.0000 </r>
       <r>    1.4036    1.0000 </r>
       <r>    1.4039    1.0000 </r>
       <r>    1.4282    1.0000 </r>
       <r>    1.4284    1.0000 </r>
       <r>    1.4286    1.0000 </r>
       <r>    1.4289    1.0000 </r>
       <r>    1.4965    1.0000 </r>
       <r>    1.4968    1.0000 </r>
       <r>    1.4971    1.0000 </r>
       <r>    1.4973    1.0000 </r>
       <r>    1.5859    1.0000 </r>
       <r>    1.5862    1.0000 </r>
       <r>    1.9360    1.0000 </r>
       <r>    1.9365    1.0000 </r>
       <r>    1.9910    1.0000 </r>
       <r>    1.9912    1.0000 </r>
       <r>    2.0109    1.0000 </r>
       <r>    2.0111    1.0000 </r>
       <r>    2.0300    1.0000 </r>
       <r>    2.0303    1.0000 </r>
       <r>    2.1432    1.0000 </r>
       <r>    2.1436    1.0000 </r>
       <r>    2.1437    1.0000 </r>
       <r>    2.1439    1.0000 </r>
       <r>    2.1879    1.0000 </r>
       <r>    2.1884    1.0000 </r>
       <r>    2.2072    1.0000 </r>
       <r>    2.2078    1.0000 </r>
       <r>    2.2269    1.0000 </r>
       <r>    2.2272    1.0000 </r>
       <r>    2.2275    1.0000 </r>
       <r>    2.2276    1.0000 </r>
       <r>    2.2712    1.0000 </r>
       <r>    2.2715    1.0000 </r>
       <r>    2.3339    1.0000 </r>
       <r>    2.3345    1.0000 </r>
       <r>    2.3756    1.0000 </r>
       <r>    2.3759    1.0000 </r>
       <r>    2.3878    1.0000 </r>
       <r>    2.3884    1.0000 </r>
       <r>    2.4119    1.0000 </r>
       <r>    2.4346    1.0000 </r>
       <r>    2.4350    1.0000 </r>
       <r>    2.4353    1.0000 </r>
       <r>    2.4355    1.0000 </r>
       <r>    2.4957    1.0000 </r>
       <r>    2.4960    1.0000 </r>
       <r>    2.4962    1.0000 </r>
       <r>    2.4969    1.0000 </r>
       <r>    2.5162    1.0000 </r>
       <r>    2.5168    1.0000 </r>
       <r>    2.5928    1.0000 </r>
       <r>    2.5931    1.0000 </r>
       <r>    2.5934    1.0000 </r>
       <r>    2.5939    1.0000 </r>
       <r>    2.6746    1.0000 </r>
       <r>    2.6748    1.0000 </r>
       <r>    2.6751    1.0000 </r>
       <r>    2.6755    1.0000 </r>
       <r>    2.6848    1.0000 </r>
       <r>    2.6849    1.0000 </r>
       <r>    2.7078    1.0000 </r>
       <r>    2.8030    1.0000 </r>
       <r>    2.8036    1.0000 </r>
       <r>    2.8093    1.0000 </r>
       <r>    2.8101    1.0000 </r>
       <r>    2.9066    1.0000 </r>
       <r>    2.9067    1.0000 </r>
       <r>    2.9070    1.0000 </r>
       <r>    2.9079    1.0000 </r>
       <r>    2.9523    1.0000 </r>
       <r>    3.0162    1.0000 </r>
       <r>    3.0168    1.0000 </r>
       <r>    3.1080    1.0000 </r>
       <r>    3.1083    1.0000 </r>
       <r>    3.1084    1.0000 </r>
       <r>    3.1089    1.0000 </r>
       <r>    3.1567    1.0000 </r>
       <r>    3.1581    1.0000 </r>
       <r>    3.1583    1.0000 </r>
       <r>    3.1589    1.0000 </r>
       <r>    3.1591    1.0000 </r>
       <r>    3.1594    1.0000 </r>
       <r>    3.1600    1.0000 </r>
       <r>    3.3332    1.0000 </r>
       <r>    3.3341    1.0000 </r>
       <r>    3.3941    1.0000 </r>
       <r>    3.3945    1.0000 </r>
       <r>    3.4134    1.0000 </r>
       <r>    3.4138    1.0000 </r>
       <r>    3.4583    1.0000 </r>
       <r>    3.4590    1.0000 </r>
       <r>    3.4714    1.0000 </r>
       <r>    3.4716    1.0000 </r>
       <r>    3.4999    1.0000 </r>
       <r>    3.5000    1.0000 </r>
       <r>    3.5001    1.0000 </r>
       <r>    3.5014    1.0000 </r>
       <r>    3.6446    1.0000 </r>
       <r>    3.6455    1.0000 </r>
       <r>    3.7359    1.0000 </r>
       <r>    3.7362    1.0000 </r>
       <r>    3.7364    1.0000 </r>
       <r>    3.7372    1.0000 </r>
       <r>    4.0458    1.0000 </r>
       <r>    4.0467    1.0000 </r>
       <r>    4.0567    1.0000 </r>
       <r>    4.0572    1.0000 </r>
       <r>    4.0574    1.0000 </r>
       <r>    4.0578    1.0000 </r>
       <r>    4.2408    1.0000 </r>
       <r>    4.3028    1.0000 </r>
       <r>    4.3037    1.0000 </r>
       <r>    4.3333    1.0000 </r>
       <r>    4.3343    1.0000 </r>
       <r>    4.4240    1.0000 </r>
       <r>    4.4249    1.0000 </r>
       <r>    4.4897    1.0000 </r>
       <r>    4.9695    1.0000 </r>
       <r>    6.0210    0.0000 </r>
       <r>    6.0216    0.0000 </r>
       <r>    6.1067    0.0000 </r>
       <r>    6.3300    0.0000 </r>
       <r>    6.3304    0.0000 </r>
       <r>    6.4853    0.0000 </r>
       <r>    6.4857    0.0000 </r>
       <r>    6.6369    0.0000 </r>
       <r>    6.6372    0.0000 </r>
       <r>    6.6452    0.0000 </r>
       <r>    6.6456    0.0000 </r>
       <r>    6.6459    0.0000 </r>
       <r>    6.6462    0.0000 </r>
       <r>    6.6565    0.0000 </r>
       <r>    6.6568    0.0000 </r>
       <r>    6.6635    0.0000 </r>
       <r>    6.8695    0.0000 </r>
       <r>    6.8701    0.0000 </r>
       <r>    6.9484    0.0000 </r>
       <r>    6.9493    0.0000 </r>
       <r>    6.9978    0.0000 </r>
       <r>    6.9984    0.0000 </r>
       <r>    7.0434    0.0000 </r>
       <r>    7.0440    0.0000 </r>
       <r>    7.0605    0.0000 </r>
       <r>    7.0611    0.0000 </r>
       <r>    7.1795    0.0000 </r>
       <r>    7.1798    0.0000 </r>
       <r>    7.1800    0.0000 </r>
       <r>    7.1804    0.0000 </r>
       <r>    7.1830    0.0000 </r>
       <r>    7.1833    0.0000 </r>
       <r>    7.2073    0.0000 </r>
       <r>    7.2078    0.0000 </r>
       <r>    7.2078    0.0000 </r>
       <r>    7.2083    0.0000 </r>
       <r>    7.2314    0.0000 </r>
       <r>    7.2316    0.0000 </r>
       <r>    7.2319    0.0000 </r>
       <r>    7.2319    0.0000 </r>
       <r>    7.2322    0.0000 </r>
       <r>    7.2996    0.0000 </r>
       <r>    7.2999    0.0000 </r>
       <r>    7.3670    0.0000 </r>
       <r>    7.3672    0.0000 </r>
       <r>    7.3673    0.0000 </r>
       <r>    7.3679    0.0000 </r>
       <r>    7.3844    0.0000 </r>
       <r>    7.3849    0.0000 </r>
       <r>    7.5170    0.0000 </r>
       <r>    7.5170    0.0000 </r>
       <r>    7.5175    0.0000 </r>
       <r>    7.5179    0.0000 </r>
       <r>    7.5411    0.0000 </r>
       <r>    7.5477    0.0000 </r>
       <r>    7.5482    0.0000 </r>
       <r>    7.5483    0.0000 </r>
       <r>    7.5487    0.0000 </r>
       <r>    7.6240    0.0000 </r>
       <r>    7.6244    0.0000 </r>
       <r>    7.6830    0.0000 </r>
       <r>    7.7016    0.0000 </r>
       <r>    7.7019    0.0000 </r>
       <r>    7.7292    0.0000 </r>
       <r>    7.7295    0.0000 </r>
       <r>    7.7818    0.0000 </r>
       <r>    7.7824    0.0000 </r>
       <r>    7.7826    0.0000 </r>
       <r>    7.7831    0.0000 </r>
       <r>    7.8833    0.0000 </r>
       <r>    7.8985    0.0000 </r>
       <r>    7.8989    0.0000 </r>
       <r>    7.9487    0.0000 </r>
       <r>    7.9489    0.0000 </r>
       <r>    8.0215    0.0000 </r>
       <r>    8.1596    0.0000 </r>
       <r>    8.1604    0.0000 </r>
       <r>    8.1606    0.0000 </r>
       <r>    8.1607    0.0000 </r>
       <r>    8.2460    0.0000 </r>
       <r>    8.2464    0.0000 </r>
       <r>    8.2524    0.0000 </r>
       <r>    8.2526    0.0000 </r>
       <r>    8.2527    0.0000 </r>
       <r>    8.2538    0.0000 </r>
       <r>    8.3604    0.0000 </r>
       <r>    8.3606    0.0000 </r>
       <r>    8.4029    0.0000 </r>
       <r>    8.4036    0.0000 </r>
       <r>    8.4273    0.0000 </r>
       <r>    8.4275    0.0000 </r>
       <r>    8.4280    0.0000 </r>
       <r>    8.4283    0.0000 </r>
       <r>    8.4316    0.0000 </r>
       <r>    8.4320    0.0000 </r>
       <r>    8.4323    0.0000 </r>
       <r>    8.4334    0.0000 </r>
       <r>    8.4681    0.0000 </r>
       <r>    8.4685    0.0000 </r>
       <r>    8.6107    0.0000 </r>
       <r>    8.6112    0.0000 </r>
       <r>    8.6131    0.0000 </r>
       <r>    8.6171    0.0000 </r>
       <r>    8.6172    0.0000 </r>
       <r>    8.6175    0.0000 </r>
       <r>    8.6179    0.0000 </r>
       <r>    8.6186    0.0000 </r>
       <r>    8.6192    0.0000 </r>
       <r>    8.6734    0.0000 </r>
       <r>    8.6739    0.0000 </r>
       <r>    8.7512    0.0000 </r>
       <r>    8.7519    0.0000 </r>
       <r>    8.7782    0.0000 </r>
       <r>    8.7789    0.0000 </r>
       <r>    8.7995    0.0000 </r>
       <r>    8.7999    0.0000 </r>
       <r>    8.8004    0.0000 </r>
       <r>    8.8005    0.0000 </r>
       <r>    8.8135    0.0000 </r>
       <r>    8.8137    0.0000 </r>
       <r>    8.8140    0.0000 </r>
       <r>    8.8146    0.0000 </r>
       <r>    8.8278    0.0000 </r>
       <r>    8.8282    0.0000 </r>
       <r>    8.8733    0.0000 </r>
       <r>    8.9966    0.0000 </r>
       <r>    8.9978    0.0000 </r>
       <r>    9.1331    0.0000 </r>
      </set>
      <set comment="kpoint 8">
       <r>  -19.2229    1.0000 </r>
       <r>  -19.2229    1.0000 </r>
       <r>  -19.2228    1.0000 </r>
       <r>  -19.2228    1.0000 </r>
       <r>  -19.2224    1.0000 </r>
       <r>  -19.2221    1.0000 </r>
       <r>  -19.2221    1.0000 </r>
       <r>  -19.2219    1.0000 </r>
       <r>  -19.2219    1.0000 </r>
       <r>  -19.2216    1.0000 </r>
       <r>  -19.2216    1.0000 </r>
       <r>  -19.2205    1.0000 </r>
       <r>  -19.2204    1.0000 </r>
       <r>  -19.2203    1.0000 </r>
       <r>  -19.2203    1.0000 </r>
       <r>  -19.2202    1.0000 </r>
       <r>  -19.2201    1.0000 </r>
       <r>  -19.2201    1.0000 </r>
       <r>  -19.2200    1.0000 </r>
       <r>  -19.2200    1.0000 </r>
       <r>  -19.2198    1.0000 </r>
       <r>  -19.2197    1.0000 </r>
       <r>  -19.2197    1.0000 </r>
       <r>  -19.2192    1.0000 </r>
       <r>  -19.2191    1.0000 </r>
       <r>  -19.2191    1.0000 </r>
       <r>  -19.2190    1.0000 </r>
       <r>  -19.2190    1.0000 </r>
       <r>  -19.2189    1.0000 </r>
       <r>  -19.2189    1.0000 </r>
       <r>  -19.2189    1.0000 </r>
       <r>  -19.2188    1.0000 </r>
       <r>  -19.2188    1.0000 </r>
       <r>  -19.2188    1.0000 </r>
       <r>  -19.2187    1.0000 </r>
       <r>  -19.2187    1.0000 </r>
       <r>  -19.2187    1.0000 </r>
       <r>  -19.2187    1.0000 </r>
       <r>  -19.2186    1.0000 </r>
       <r>  -19.2186    1.0000 </r>
       <r>  -19.2186    1.0000 </r>
       <r>  -19.2184    1.0000 </r>
       <r>  -19.2184    1.0000 </r>
       <r>  -19.2184    1.0000 </r>
       <r>  -19.2183    1.0000 </r>
       <r>  -19.2182    1.0000 </r>
       <r>  -19.2182    1.0000 </r>
       <r>  -19.2181    1.0000 </r>
       <r>  -19.2181    1.0000 </r>
       <r>  -19.2180    1.0000 </r>
       <r>  -19.2180    1.0000 </r>
       <r>  -19.2180    1.0000 </r>
       <r>  -19.2180    1.0000 </r>
       <r>  -19.2180    1.0000 </r>
       <r>  -19.2180    1.0000 </r>
       <r>  -19.2179    1.0000 </r>
       <r>  -19.2179    1.0000 </r>
       <r>  -19.2179    1.0000 </r>
       <r>  -19.2178    1.0000 </r>
       <r>  -19.2178    1.0000 </r>
       <r>  -19.2178    1.0000 </r>
       <r>  -19.2178    1.0000 </r>
       <r>  -19.2177    1.0000 </r>
       <r>  -19.2175    1.0000 </r>
       <r>  -19.2170    1.0000 </r>
       <r>  -19.2166    1.0000 </r>
       <r>  -19.2164    1.0000 </r>
       <r>  -19.2164    1.0000 </r>
       <r>  -19.2162    1.0000 </r>
       <r>  -19.2162    1.0000 </r>
       <r>  -19.2154    1.0000 </r>
       <r>  -19.2153    1.0000 </r>
       <r>  -19.2151    1.0000 </r>
       <r>  -19.2151    1.0000 </r>
       <r>  -19.2150    1.0000 </r>
       <r>  -19.2145    1.0000 </r>
       <r>  -19.2144    1.0000 </r>
       <r>  -19.2144    1.0000 </r>
       <r>  -19.2143    1.0000 </r>
       <r>  -19.2143    1.0000 </r>
       <r>  -19.2140    1.0000 </r>
       <r>  -19.2140    1.0000 </r>
       <r>  -19.2139    1.0000 </r>
       <r>  -19.2139    1.0000 </r>
       <r>  -19.2138    1.0000 </r>
       <r>  -19.2138    1.0000 </r>
       <r>  -19.2138    1.0000 </r>
       <r>  -19.2137    1.0000 </r>
       <r>  -19.2136    1.0000 </r>
       <r>  -19.2136    1.0000 </r>
       <r>  -19.2136    1.0000 </r>
       <r>  -19.2136    1.0000 </r>
       <r>  -19.2135    1.0000 </r>
       <r>  -19.2135    1.0000 </r>
       <r>  -19.2133    1.0000 </r>
       <r>  -19.2133    1.0000 </r>
       <r>  -19.2132    1.0000 </r>
       <r>  -19.2132    1.0000 </r>
       <r>  -19.2132    1.0000 </r>
       <r>  -19.2132    1.0000 </r>
       <r>  -19.2131    1.0000 </r>
       <r>  -19.2131    1.0000 </r>
       <r>  -19.2131    1.0000 </r>
       <r>  -19.2131    1.0000 </r>
       <r>  -19.2131    1.0000 </r>
       <r>  -19.2131    1.0000 </r>
       <r>  -19.2130    1.0000 </r>
       <r>  -19.2130    1.0000 </r>
       <r>  -19.2129    1.0000 </r>
       <r>  -19.2129    1.0000 </r>
       <r>  -19.2129    1.0000 </r>
       <r>  -19.2129    1.0000 </r>
       <r>  -19.2129    1.0000 </r>
       <r>  -19.2129    1.0000 </r>
       <r>  -19.2128    1.0000 </r>
       <r>  -19.2128    1.0000 </r>
       <r>  -19.2128    1.0000 </r>
       <r>  -19.2128    1.0000 </r>
       <r>  -19.2126    1.0000 </r>
       <r>  -19.2126    1.0000 </r>
       <r>  -19.2125    1.0000 </r>
       <r>  -19.2124    1.0000 </r>
       <r>  -19.2124    1.0000 </r>
       <r>  -19.2124    1.0000 </r>
       <r>  -19.2123    1.0000 </r>
       <r>  -19.2123    1.0000 </r>
       <r>  -19.2122    1.0000 </r>
       <r>  -19.2122    1.0000 </r>
       <r>  -19.2121    1.0000 </r>
       <r>  -19.2121    1.0000 </r>
       <r>  -19.2121    1.0000 </r>
       <r>  -19.2121    1.0000 </r>
       <r>  -19.2120    1.0000 </r>
       <r>  -19.2120    1.0000 </r>
       <r>  -19.2120    1.0000 </r>
       <r>  -19.2119    1.0000 </r>
       <r>  -19.2118    1.0000 </r>
       <r>  -19.2118    1.0000 </r>
       <r>  -19.2118    1.0000 </r>
       <r>  -19.2117    1.0000 </r>
       <r>  -19.2116    1.0000 </r>
       <r>  -19.2115    1.0000 </r>
       <r>  -19.2113    1.0000 </r>
       <r>  -19.2113    1.0000 </r>
       <r>  -19.2112    1.0000 </r>
       <r>  -19.2112    1.0000 </r>
       <r>  -19.2112    1.0000 </r>
       <r>  -19.2108    1.0000 </r>
       <r>  -19.2108    1.0000 </r>
       <r>  -19.2108    1.0000 </r>
       <r>  -19.2108    1.0000 </r>
       <r>  -19.2107    1.0000 </r>
       <r>  -19.2106    1.0000 </r>
       <r>  -19.2104    1.0000 </r>
       <r>  -19.2103    1.0000 </r>
       <r>  -19.2101    1.0000 </r>
       <r>  -19.2101    1.0000 </r>
       <r>  -19.2100    1.0000 </r>
       <r>  -19.2100    1.0000 </r>
       <r>  -19.2098    1.0000 </r>
       <r>  -19.2095    1.0000 </r>
       <r>  -19.2095    1.0000 </r>
       <r>  -19.2094    1.0000 </r>
       <r>  -19.2094    1.0000 </r>
       <r>  -19.2092    1.0000 </r>
       <r>  -19.2092    1.0000 </r>
       <r>  -19.2092    1.0000 </r>
       <r>  -19.2092    1.0000 </r>
       <r>  -19.2091    1.0000 </r>
       <r>  -19.2091    1.0000 </r>
       <r>  -19.2091    1.0000 </r>
       <r>  -19.2090    1.0000 </r>
       <r>  -19.2090    1.0000 </r>
       <r>  -19.2090    1.0000 </r>
       <r>  -19.2089    1.0000 </r>
       <r>  -19.2089    1.0000 </r>
       <r>  -19.2088    1.0000 </r>
       <r>  -19.2088    1.0000 </r>
       <r>  -19.2087    1.0000 </r>
       <r>  -19.2087    1.0000 </r>
       <r>  -19.2084    1.0000 </r>
       <r>  -19.2080    1.0000 </r>
       <r>  -19.2080    1.0000 </r>
       <r>  -19.2080    1.0000 </r>
       <r>  -19.2080    1.0000 </r>
       <r>  -19.2079    1.0000 </r>
       <r>  -19.2078    1.0000 </r>
       <r>  -19.2078    1.0000 </r>
       <r>  -19.2076    1.0000 </r>
       <r>  -19.2076    1.0000 </r>
       <r>  -19.2076    1.0000 </r>
       <r>  -19.2076    1.0000 </r>
       <r>  -19.1957    1.0000 </r>
       <r>  -19.1957    1.0000 </r>
       <r>  -19.1956    1.0000 </r>
       <r>  -19.1955    1.0000 </r>
       <r>  -19.1955    1.0000 </r>
       <r>  -19.1955    1.0000 </r>
       <r>  -19.1953    1.0000 </r>
       <r>  -19.1953    1.0000 </r>
       <r>  -19.1952    1.0000 </r>
       <r>  -19.1948    1.0000 </r>
       <r>  -19.1948    1.0000 </r>
       <r>  -19.1945    1.0000 </r>
       <r>  -19.1945    1.0000 </r>
       <r>  -19.1945    1.0000 </r>
       <r>  -19.1944    1.0000 </r>
       <r>  -19.1942    1.0000 </r>
       <r>  -19.1941    1.0000 </r>
       <r>  -19.1941    1.0000 </r>
       <r>  -19.1939    1.0000 </r>
       <r>  -19.1939    1.0000 </r>
       <r>  -19.1939    1.0000 </r>
       <r>  -19.1938    1.0000 </r>
       <r>  -19.1937    1.0000 </r>
       <r>  -19.1936    1.0000 </r>
       <r>  -19.1936    1.0000 </r>
       <r>  -19.1935    1.0000 </r>
       <r>  -19.1935    1.0000 </r>
       <r>  -19.1935    1.0000 </r>
       <r>  -19.1934    1.0000 </r>
       <r>  -19.1934    1.0000 </r>
       <r>  -19.1933    1.0000 </r>
       <r>  -19.1933    1.0000 </r>
       <r>  -19.1932    1.0000 </r>
       <r>  -19.1931    1.0000 </r>
       <r>  -19.1931    1.0000 </r>
       <r>  -19.1931    1.0000 </r>
       <r>  -19.1931    1.0000 </r>
       <r>  -19.1930    1.0000 </r>
       <r>  -19.1930    1.0000 </r>
       <r>  -19.1929    1.0000 </r>
       <r>  -19.1929    1.0000 </r>
       <r>  -19.1928    1.0000 </r>
       <r>  -19.1928    1.0000 </r>
       <r>  -19.1927    1.0000 </r>
       <r>  -19.1927    1.0000 </r>
       <r>  -19.1926    1.0000 </r>
       <r>  -19.1925    1.0000 </r>
       <r>  -19.1925    1.0000 </r>
       <r>  -19.1925    1.0000 </r>
       <r>  -19.1924    1.0000 </r>
       <r>  -19.1924    1.0000 </r>
       <r>  -19.1924    1.0000 </r>
       <r>  -19.1923    1.0000 </r>
       <r>  -19.1921    1.0000 </r>
       <r>  -19.1921    1.0000 </r>
       <r>  -19.1921    1.0000 </r>
       <r>  -19.1921    1.0000 </r>
       <r>  -19.1920    1.0000 </r>
       <r>  -19.1920    1.0000 </r>
       <r>  -19.1920    1.0000 </r>
       <r>  -19.1920    1.0000 </r>
       <r>  -19.1920    1.0000 </r>
       <r>  -19.1919    1.0000 </r>
       <r>  -19.1918    1.0000 </r>
       <r>  -19.1917    1.0000 </r>
       <r>  -19.1917    1.0000 </r>
       <r>  -19.1916    1.0000 </r>
       <r>  -19.1915    1.0000 </r>
       <r>  -19.1914    1.0000 </r>
       <r>  -19.1914    1.0000 </r>
       <r>  -19.1913    1.0000 </r>
       <r>  -19.1913    1.0000 </r>
       <r>  -19.1912    1.0000 </r>
       <r>  -19.1911    1.0000 </r>
       <r>  -19.1911    1.0000 </r>
       <r>  -19.1910    1.0000 </r>
       <r>  -19.1910    1.0000 </r>
       <r>  -19.1910    1.0000 </r>
       <r>  -19.1910    1.0000 </r>
       <r>  -19.1909    1.0000 </r>
       <r>  -19.1909    1.0000 </r>
       <r>  -19.1909    1.0000 </r>
       <r>  -19.1908    1.0000 </r>
       <r>  -19.1908    1.0000 </r>
       <r>  -19.1908    1.0000 </r>
       <r>  -19.1908    1.0000 </r>
       <r>  -19.1908    1.0000 </r>
       <r>  -19.1907    1.0000 </r>
       <r>  -19.1907    1.0000 </r>
       <r>  -19.1907    1.0000 </r>
       <r>  -19.1906    1.0000 </r>
       <r>  -19.1906    1.0000 </r>
       <r>  -19.1906    1.0000 </r>
       <r>  -19.1906    1.0000 </r>
       <r>  -19.1905    1.0000 </r>
       <r>  -19.1905    1.0000 </r>
       <r>  -19.1905    1.0000 </r>
       <r>  -19.1904    1.0000 </r>
       <r>  -19.1903    1.0000 </r>
       <r>  -19.1903    1.0000 </r>
       <r>  -19.1903    1.0000 </r>
       <r>  -19.1903    1.0000 </r>
       <r>  -19.1902    1.0000 </r>
       <r>  -19.1901    1.0000 </r>
       <r>  -19.1901    1.0000 </r>
       <r>  -19.1900    1.0000 </r>
       <r>  -19.1900    1.0000 </r>
       <r>  -19.1899    1.0000 </r>
       <r>  -19.1899    1.0000 </r>
       <r>  -19.1899    1.0000 </r>
       <r>  -19.1897    1.0000 </r>
       <r>  -19.1897    1.0000 </r>
       <r>  -19.1896    1.0000 </r>
       <r>  -19.1895    1.0000 </r>
       <r>  -19.1895    1.0000 </r>
       <r>  -19.1895    1.0000 </r>
       <r>  -19.1894    1.0000 </r>
       <r>  -19.1892    1.0000 </r>
       <r>  -19.1892    1.0000 </r>
       <r>  -19.1888    1.0000 </r>
       <r>  -19.1888    1.0000 </r>
       <r>  -19.1887    1.0000 </r>
       <r>  -19.1886    1.0000 </r>
       <r>  -19.1886    1.0000 </r>
       <r>  -19.1885    1.0000 </r>
       <r>  -19.1885    1.0000 </r>
       <r>  -19.1884    1.0000 </r>
       <r>  -19.1884    1.0000 </r>
       <r>   -6.8523    1.0000 </r>
       <r>   -6.7677    1.0000 </r>
       <r>   -6.7677    1.0000 </r>
       <r>   -6.5173    1.0000 </r>
       <r>   -6.5166    1.0000 </r>
       <r>   -6.1940    1.0000 </r>
       <r>   -6.1127    1.0000 </r>
       <r>   -6.1120    1.0000 </r>
       <r>   -6.1119    1.0000 </r>
       <r>   -6.1112    1.0000 </r>
       <r>   -5.8689    1.0000 </r>
       <r>   -5.8689    1.0000 </r>
       <r>   -5.5856    1.0000 </r>
       <r>   -5.5851    1.0000 </r>
       <r>   -5.5850    1.0000 </r>
       <r>   -5.5845    1.0000 </r>
       <r>   -5.5420    1.0000 </r>
       <r>   -5.5419    1.0000 </r>
       <r>   -5.4768    1.0000 </r>
       <r>   -5.4761    1.0000 </r>
       <r>   -5.4759    1.0000 </r>
       <r>   -5.4752    1.0000 </r>
       <r>   -5.3535    1.0000 </r>
       <r>   -5.3535    1.0000 </r>
       <r>   -5.2158    1.0000 </r>
       <r>   -5.2150    1.0000 </r>
       <r>   -5.0347    1.0000 </r>
       <r>   -5.0340    1.0000 </r>
       <r>   -5.0339    1.0000 </r>
       <r>   -5.0333    1.0000 </r>
       <r>   -4.9627    1.0000 </r>
       <r>   -4.9619    1.0000 </r>
       <r>   -4.8133    1.0000 </r>
       <r>   -4.8133    1.0000 </r>
       <r>   -4.7512    1.0000 </r>
       <r>   -4.7507    1.0000 </r>
       <r>   -4.7168    1.0000 </r>
       <r>   -4.7168    1.0000 </r>
       <r>   -4.6089    1.0000 </r>
       <r>   -4.6082    1.0000 </r>
       <r>   -4.6082    1.0000 </r>
       <r>   -4.6075    1.0000 </r>
       <r>   -4.4140    1.0000 </r>
       <r>   -4.4138    1.0000 </r>
       <r>   -4.4135    1.0000 </r>
       <r>   -4.4133    1.0000 </r>
       <r>   -4.3016    1.0000 </r>
       <r>   -4.3008    1.0000 </r>
       <r>   -4.1308    1.0000 </r>
       <r>   -4.1301    1.0000 </r>
       <r>   -4.1238    1.0000 </r>
       <r>   -4.1217    1.0000 </r>
       <r>   -4.1212    1.0000 </r>
       <r>   -4.1211    1.0000 </r>
       <r>   -4.1206    1.0000 </r>
       <r>   -4.1188    1.0000 </r>
       <r>   -4.1182    1.0000 </r>
       <r>   -3.7913    1.0000 </r>
       <r>   -3.7907    1.0000 </r>
       <r>   -3.7906    1.0000 </r>
       <r>   -3.7900    1.0000 </r>
       <r>   -3.7035    1.0000 </r>
       <r>   -3.7032    1.0000 </r>
       <r>   -3.5801    1.0000 </r>
       <r>   -2.6291    1.0000 </r>
       <r>   -2.4333    1.0000 </r>
       <r>   -2.4322    1.0000 </r>
       <r>   -2.3761    1.0000 </r>
       <r>   -2.3754    1.0000 </r>
       <r>   -2.3753    1.0000 </r>
       <r>   -2.3745    1.0000 </r>
       <r>   -2.0637    1.0000 </r>
       <r>   -2.0627    1.0000 </r>
       <r>   -2.0433    1.0000 </r>
       <r>   -2.0429    1.0000 </r>
       <r>   -2.0429    1.0000 </r>
       <r>   -2.0424    1.0000 </r>
       <r>   -2.0220    1.0000 </r>
       <r>   -1.9568    1.0000 </r>
       <r>   -1.9566    1.0000 </r>
       <r>   -1.9301    1.0000 </r>
       <r>   -1.9289    1.0000 </r>
       <r>   -1.8638    1.0000 </r>
       <r>   -1.8638    1.0000 </r>
       <r>   -1.8301    1.0000 </r>
       <r>   -1.8291    1.0000 </r>
       <r>   -1.7272    1.0000 </r>
       <r>   -1.7269    1.0000 </r>
       <r>   -1.7269    1.0000 </r>
       <r>   -1.7267    1.0000 </r>
       <r>   -1.7043    1.0000 </r>
       <r>   -1.7034    1.0000 </r>
       <r>   -1.7032    1.0000 </r>
       <r>   -1.7022    1.0000 </r>
       <r>   -1.4930    1.0000 </r>
       <r>   -1.4919    1.0000 </r>
       <r>   -1.4918    1.0000 </r>
       <r>   -1.4906    1.0000 </r>
       <r>   -1.2164    1.0000 </r>
       <r>   -1.2164    1.0000 </r>
       <r>   -1.1753    1.0000 </r>
       <r>   -1.1753    1.0000 </r>
       <r>   -0.9995    1.0000 </r>
       <r>   -0.9983    1.0000 </r>
       <r>   -0.8619    1.0000 </r>
       <r>   -0.8619    1.0000 </r>
       <r>   -0.5876    1.0000 </r>
       <r>   -0.5873    1.0000 </r>
       <r>   -0.4900    1.0000 </r>
       <r>   -0.4891    1.0000 </r>
       <r>   -0.4890    1.0000 </r>
       <r>   -0.4881    1.0000 </r>
       <r>   -0.3133    1.0000 </r>
       <r>   -0.3128    1.0000 </r>
       <r>   -0.3128    1.0000 </r>
       <r>   -0.3123    1.0000 </r>
       <r>    0.2647    1.0000 </r>
       <r>    0.2647    1.0000 </r>
       <r>    0.7354    1.0000 </r>
       <r>    0.7361    1.0000 </r>
       <r>    0.7364    1.0000 </r>
       <r>    0.7370    1.0000 </r>
       <r>    0.8140    1.0000 </r>
       <r>    0.9579    1.0000 </r>
       <r>    0.9583    1.0000 </r>
       <r>    0.9586    1.0000 </r>
       <r>    0.9587    1.0000 </r>
       <r>    0.9591    1.0000 </r>
       <r>    0.9759    1.0000 </r>
       <r>    0.9763    1.0000 </r>
       <r>    1.1452    1.0000 </r>
       <r>    1.1453    1.0000 </r>
       <r>    1.2445    1.0000 </r>
       <r>    1.2446    1.0000 </r>
       <r>    1.2450    1.0000 </r>
       <r>    1.2451    1.0000 </r>
       <r>    1.3427    1.0000 </r>
       <r>    1.4034    1.0000 </r>
       <r>    1.4040    1.0000 </r>
       <r>    1.4281    1.0000 </r>
       <r>    1.4284    1.0000 </r>
       <r>    1.4286    1.0000 </r>
       <r>    1.4289    1.0000 </r>
       <r>    1.4968    1.0000 </r>
       <r>    1.4971    1.0000 </r>
       <r>    1.4972    1.0000 </r>
       <r>    1.4975    1.0000 </r>
       <r>    1.5859    1.0000 </r>
       <r>    1.5862    1.0000 </r>
       <r>    1.9362    1.0000 </r>
       <r>    1.9369    1.0000 </r>
       <r>    1.9910    1.0000 </r>
       <r>    1.9912    1.0000 </r>
       <r>    2.0110    1.0000 </r>
       <r>    2.0113    1.0000 </r>
       <r>    2.0300    1.0000 </r>
       <r>    2.0301    1.0000 </r>
       <r>    2.1431    1.0000 </r>
       <r>    2.1435    1.0000 </r>
       <r>    2.1437    1.0000 </r>
       <r>    2.1441    1.0000 </r>
       <r>    2.1878    1.0000 </r>
       <r>    2.1883    1.0000 </r>
       <r>    2.2073    1.0000 </r>
       <r>    2.2073    1.0000 </r>
       <r>    2.2273    1.0000 </r>
       <r>    2.2275    1.0000 </r>
       <r>    2.2275    1.0000 </r>
       <r>    2.2277    1.0000 </r>
       <r>    2.2711    1.0000 </r>
       <r>    2.2717    1.0000 </r>
       <r>    2.3337    1.0000 </r>
       <r>    2.3342    1.0000 </r>
       <r>    2.3756    1.0000 </r>
       <r>    2.3762    1.0000 </r>
       <r>    2.3877    1.0000 </r>
       <r>    2.3878    1.0000 </r>
       <r>    2.4121    1.0000 </r>
       <r>    2.4346    1.0000 </r>
       <r>    2.4348    1.0000 </r>
       <r>    2.4355    1.0000 </r>
       <r>    2.4356    1.0000 </r>
       <r>    2.4956    1.0000 </r>
       <r>    2.4960    1.0000 </r>
       <r>    2.4962    1.0000 </r>
       <r>    2.4966    1.0000 </r>
       <r>    2.5167    1.0000 </r>
       <r>    2.5167    1.0000 </r>
       <r>    2.5928    1.0000 </r>
       <r>    2.5930    1.0000 </r>
       <r>    2.5935    1.0000 </r>
       <r>    2.5937    1.0000 </r>
       <r>    2.6745    1.0000 </r>
       <r>    2.6749    1.0000 </r>
       <r>    2.6752    1.0000 </r>
       <r>    2.6755    1.0000 </r>
       <r>    2.6850    1.0000 </r>
       <r>    2.6851    1.0000 </r>
       <r>    2.7079    1.0000 </r>
       <r>    2.8032    1.0000 </r>
       <r>    2.8032    1.0000 </r>
       <r>    2.8092    1.0000 </r>
       <r>    2.8097    1.0000 </r>
       <r>    2.9067    1.0000 </r>
       <r>    2.9069    1.0000 </r>
       <r>    2.9070    1.0000 </r>
       <r>    2.9071    1.0000 </r>
       <r>    2.9526    1.0000 </r>
       <r>    3.0163    1.0000 </r>
       <r>    3.0163    1.0000 </r>
       <r>    3.1078    1.0000 </r>
       <r>    3.1082    1.0000 </r>
       <r>    3.1083    1.0000 </r>
       <r>    3.1087    1.0000 </r>
       <r>    3.1565    1.0000 </r>
       <r>    3.1581    1.0000 </r>
       <r>    3.1581    1.0000 </r>
       <r>    3.1587    1.0000 </r>
       <r>    3.1591    1.0000 </r>
       <r>    3.1594    1.0000 </r>
       <r>    3.1597    1.0000 </r>
       <r>    3.3339    1.0000 </r>
       <r>    3.3339    1.0000 </r>
       <r>    3.3941    1.0000 </r>
       <r>    3.3942    1.0000 </r>
       <r>    3.4134    1.0000 </r>
       <r>    3.4141    1.0000 </r>
       <r>    3.4589    1.0000 </r>
       <r>    3.4590    1.0000 </r>
       <r>    3.4714    1.0000 </r>
       <r>    3.4715    1.0000 </r>
       <r>    3.4997    1.0000 </r>
       <r>    3.5000    1.0000 </r>
       <r>    3.5001    1.0000 </r>
       <r>    3.5005    1.0000 </r>
       <r>    3.6453    1.0000 </r>
       <r>    3.6453    1.0000 </r>
       <r>    3.7359    1.0000 </r>
       <r>    3.7363    1.0000 </r>
       <r>    3.7364    1.0000 </r>
       <r>    3.7369    1.0000 </r>
       <r>    4.0465    1.0000 </r>
       <r>    4.0466    1.0000 </r>
       <r>    4.0564    1.0000 </r>
       <r>    4.0571    1.0000 </r>
       <r>    4.0575    1.0000 </r>
       <r>    4.0583    1.0000 </r>
       <r>    4.2409    1.0000 </r>
       <r>    4.3036    1.0000 </r>
       <r>    4.3036    1.0000 </r>
       <r>    4.3334    1.0000 </r>
       <r>    4.3335    1.0000 </r>
       <r>    4.4242    1.0000 </r>
       <r>    4.4242    1.0000 </r>
       <r>    4.4901    1.0000 </r>
       <r>    4.9700    1.0000 </r>
       <r>    6.0215    0.0000 </r>
       <r>    6.0215    0.0000 </r>
       <r>    6.1070    0.0000 </r>
       <r>    6.3299    0.0000 </r>
       <r>    6.3306    0.0000 </r>
       <r>    6.4854    0.0000 </r>
       <r>    6.4855    0.0000 </r>
       <r>    6.6371    0.0000 </r>
       <r>    6.6371    0.0000 </r>
       <r>    6.6452    0.0000 </r>
       <r>    6.6455    0.0000 </r>
       <r>    6.6459    0.0000 </r>
       <r>    6.6462    0.0000 </r>
       <r>    6.6568    0.0000 </r>
       <r>    6.6568    0.0000 </r>
       <r>    6.6638    0.0000 </r>
       <r>    6.8693    0.0000 </r>
       <r>    6.8697    0.0000 </r>
       <r>    6.9488    0.0000 </r>
       <r>    6.9489    0.0000 </r>
       <r>    6.9983    0.0000 </r>
       <r>    6.9983    0.0000 </r>
       <r>    7.0439    0.0000 </r>
       <r>    7.0439    0.0000 </r>
       <r>    7.0607    0.0000 </r>
       <r>    7.0607    0.0000 </r>
       <r>    7.1795    0.0000 </r>
       <r>    7.1798    0.0000 </r>
       <r>    7.1801    0.0000 </r>
       <r>    7.1805    0.0000 </r>
       <r>    7.1828    0.0000 </r>
       <r>    7.1831    0.0000 </r>
       <r>    7.2073    0.0000 </r>
       <r>    7.2077    0.0000 </r>
       <r>    7.2079    0.0000 </r>
       <r>    7.2083    0.0000 </r>
       <r>    7.2312    0.0000 </r>
       <r>    7.2315    0.0000 </r>
       <r>    7.2318    0.0000 </r>
       <r>    7.2320    0.0000 </r>
       <r>    7.2322    0.0000 </r>
       <r>    7.2998    0.0000 </r>
       <r>    7.2998    0.0000 </r>
       <r>    7.3669    0.0000 </r>
       <r>    7.3670    0.0000 </r>
       <r>    7.3674    0.0000 </r>
       <r>    7.3675    0.0000 </r>
       <r>    7.3844    0.0000 </r>
       <r>    7.3851    0.0000 </r>
       <r>    7.5168    0.0000 </r>
       <r>    7.5170    0.0000 </r>
       <r>    7.5172    0.0000 </r>
       <r>    7.5174    0.0000 </r>
       <r>    7.5412    0.0000 </r>
       <r>    7.5478    0.0000 </r>
       <r>    7.5481    0.0000 </r>
       <r>    7.5485    0.0000 </r>
       <r>    7.5488    0.0000 </r>
       <r>    7.6240    0.0000 </r>
       <r>    7.6244    0.0000 </r>
       <r>    7.6827    0.0000 </r>
       <r>    7.7018    0.0000 </r>
       <r>    7.7018    0.0000 </r>
       <r>    7.7293    0.0000 </r>
       <r>    7.7293    0.0000 </r>
       <r>    7.7820    0.0000 </r>
       <r>    7.7822    0.0000 </r>
       <r>    7.7827    0.0000 </r>
       <r>    7.7830    0.0000 </r>
       <r>    7.8829    0.0000 </r>
       <r>    7.8983    0.0000 </r>
       <r>    7.8992    0.0000 </r>
       <r>    7.9486    0.0000 </r>
       <r>    7.9489    0.0000 </r>
       <r>    8.0218    0.0000 </r>
       <r>    8.1600    0.0000 </r>
       <r>    8.1605    0.0000 </r>
       <r>    8.1607    0.0000 </r>
       <r>    8.1612    0.0000 </r>
       <r>    8.2459    0.0000 </r>
       <r>    8.2465    0.0000 </r>
       <r>    8.2523    0.0000 </r>
       <r>    8.2526    0.0000 </r>
       <r>    8.2528    0.0000 </r>
       <r>    8.2531    0.0000 </r>
       <r>    8.3602    0.0000 </r>
       <r>    8.3603    0.0000 </r>
       <r>    8.4030    0.0000 </r>
       <r>    8.4040    0.0000 </r>
       <r>    8.4271    0.0000 </r>
       <r>    8.4275    0.0000 </r>
       <r>    8.4276    0.0000 </r>
       <r>    8.4280    0.0000 </r>
       <r>    8.4317    0.0000 </r>
       <r>    8.4318    0.0000 </r>
       <r>    8.4323    0.0000 </r>
       <r>    8.4325    0.0000 </r>
       <r>    8.4687    0.0000 </r>
       <r>    8.4687    0.0000 </r>
       <r>    8.6108    0.0000 </r>
       <r>    8.6110    0.0000 </r>
       <r>    8.6129    0.0000 </r>
       <r>    8.6170    0.0000 </r>
       <r>    8.6172    0.0000 </r>
       <r>    8.6173    0.0000 </r>
       <r>    8.6176    0.0000 </r>
       <r>    8.6188    0.0000 </r>
       <r>    8.6196    0.0000 </r>
       <r>    8.6736    0.0000 </r>
       <r>    8.6738    0.0000 </r>
       <r>    8.7514    0.0000 </r>
       <r>    8.7514    0.0000 </r>
       <r>    8.7782    0.0000 </r>
       <r>    8.7782    0.0000 </r>
       <r>    8.7996    0.0000 </r>
       <r>    8.7999    0.0000 </r>
       <r>    8.8001    0.0000 </r>
       <r>    8.8005    0.0000 </r>
       <r>    8.8132    0.0000 </r>
       <r>    8.8136    0.0000 </r>
       <r>    8.8140    0.0000 </r>
       <r>    8.8144    0.0000 </r>
       <r>    8.8284    0.0000 </r>
       <r>    8.8285    0.0000 </r>
       <r>    8.8735    0.0000 </r>
       <r>    8.9967    0.0000 </r>
       <r>    9.0034    0.0000 </r>
       <r>    9.1250    0.0000 </r>
      </set>
      <set comment="kpoint 9">
       <r>  -19.2229    1.0000 </r>
       <r>  -19.2229    1.0000 </r>
       <r>  -19.2229    1.0000 </r>
       <r>  -19.2228    1.0000 </r>
       <r>  -19.2224    1.0000 </r>
       <r>  -19.2221    1.0000 </r>
       <r>  -19.2220    1.0000 </r>
       <r>  -19.2219    1.0000 </r>
       <r>  -19.2219    1.0000 </r>
       <r>  -19.2216    1.0000 </r>
       <r>  -19.2216    1.0000 </r>
       <r>  -19.2205    1.0000 </r>
       <r>  -19.2205    1.0000 </r>
       <r>  -19.2204    1.0000 </r>
       <r>  -19.2203    1.0000 </r>
       <r>  -19.2202    1.0000 </r>
       <r>  -19.2201    1.0000 </r>
       <r>  -19.2201    1.0000 </r>
       <r>  -19.2200    1.0000 </r>
       <r>  -19.2199    1.0000 </r>
       <r>  -19.2199    1.0000 </r>
       <r>  -19.2197    1.0000 </r>
       <r>  -19.2197    1.0000 </r>
       <r>  -19.2192    1.0000 </r>
       <r>  -19.2191    1.0000 </r>
       <r>  -19.2191    1.0000 </r>
       <r>  -19.2191    1.0000 </r>
       <r>  -19.2190    1.0000 </r>
       <r>  -19.2189    1.0000 </r>
       <r>  -19.2189    1.0000 </r>
       <r>  -19.2189    1.0000 </r>
       <r>  -19.2188    1.0000 </r>
       <r>  -19.2188    1.0000 </r>
       <r>  -19.2188    1.0000 </r>
       <r>  -19.2188    1.0000 </r>
       <r>  -19.2187    1.0000 </r>
       <r>  -19.2187    1.0000 </r>
       <r>  -19.2187    1.0000 </r>
       <r>  -19.2186    1.0000 </r>
       <r>  -19.2186    1.0000 </r>
       <r>  -19.2185    1.0000 </r>
       <r>  -19.2184    1.0000 </r>
       <r>  -19.2184    1.0000 </r>
       <r>  -19.2184    1.0000 </r>
       <r>  -19.2183    1.0000 </r>
       <r>  -19.2183    1.0000 </r>
       <r>  -19.2182    1.0000 </r>
       <r>  -19.2182    1.0000 </r>
       <r>  -19.2181    1.0000 </r>
       <r>  -19.2181    1.0000 </r>
       <r>  -19.2181    1.0000 </r>
       <r>  -19.2181    1.0000 </r>
       <r>  -19.2180    1.0000 </r>
       <r>  -19.2180    1.0000 </r>
       <r>  -19.2180    1.0000 </r>
       <r>  -19.2179    1.0000 </r>
       <r>  -19.2179    1.0000 </r>
       <r>  -19.2179    1.0000 </r>
       <r>  -19.2178    1.0000 </r>
       <r>  -19.2178    1.0000 </r>
       <r>  -19.2177    1.0000 </r>
       <r>  -19.2177    1.0000 </r>
       <r>  -19.2176    1.0000 </r>
       <r>  -19.2176    1.0000 </r>
       <r>  -19.2171    1.0000 </r>
       <r>  -19.2166    1.0000 </r>
       <r>  -19.2164    1.0000 </r>
       <r>  -19.2164    1.0000 </r>
       <r>  -19.2162    1.0000 </r>
       <r>  -19.2162    1.0000 </r>
       <r>  -19.2154    1.0000 </r>
       <r>  -19.2154    1.0000 </r>
       <r>  -19.2151    1.0000 </r>
       <r>  -19.2151    1.0000 </r>
       <r>  -19.2150    1.0000 </r>
       <r>  -19.2145    1.0000 </r>
       <r>  -19.2145    1.0000 </r>
       <r>  -19.2144    1.0000 </r>
       <r>  -19.2143    1.0000 </r>
       <r>  -19.2143    1.0000 </r>
       <r>  -19.2140    1.0000 </r>
       <r>  -19.2140    1.0000 </r>
       <r>  -19.2139    1.0000 </r>
       <r>  -19.2139    1.0000 </r>
       <r>  -19.2138    1.0000 </r>
       <r>  -19.2138    1.0000 </r>
       <r>  -19.2138    1.0000 </r>
       <r>  -19.2137    1.0000 </r>
       <r>  -19.2137    1.0000 </r>
       <r>  -19.2137    1.0000 </r>
       <r>  -19.2136    1.0000 </r>
       <r>  -19.2135    1.0000 </r>
       <r>  -19.2135    1.0000 </r>
       <r>  -19.2134    1.0000 </r>
       <r>  -19.2134    1.0000 </r>
       <r>  -19.2133    1.0000 </r>
       <r>  -19.2133    1.0000 </r>
       <r>  -19.2132    1.0000 </r>
       <r>  -19.2132    1.0000 </r>
       <r>  -19.2132    1.0000 </r>
       <r>  -19.2132    1.0000 </r>
       <r>  -19.2131    1.0000 </r>
       <r>  -19.2131    1.0000 </r>
       <r>  -19.2131    1.0000 </r>
       <r>  -19.2131    1.0000 </r>
       <r>  -19.2130    1.0000 </r>
       <r>  -19.2130    1.0000 </r>
       <r>  -19.2130    1.0000 </r>
       <r>  -19.2129    1.0000 </r>
       <r>  -19.2129    1.0000 </r>
       <r>  -19.2129    1.0000 </r>
       <r>  -19.2129    1.0000 </r>
       <r>  -19.2128    1.0000 </r>
       <r>  -19.2128    1.0000 </r>
       <r>  -19.2128    1.0000 </r>
       <r>  -19.2128    1.0000 </r>
       <r>  -19.2127    1.0000 </r>
       <r>  -19.2127    1.0000 </r>
       <r>  -19.2126    1.0000 </r>
       <r>  -19.2125    1.0000 </r>
       <r>  -19.2125    1.0000 </r>
       <r>  -19.2124    1.0000 </r>
       <r>  -19.2123    1.0000 </r>
       <r>  -19.2123    1.0000 </r>
       <r>  -19.2123    1.0000 </r>
       <r>  -19.2122    1.0000 </r>
       <r>  -19.2122    1.0000 </r>
       <r>  -19.2122    1.0000 </r>
       <r>  -19.2122    1.0000 </r>
       <r>  -19.2122    1.0000 </r>
       <r>  -19.2121    1.0000 </r>
       <r>  -19.2121    1.0000 </r>
       <r>  -19.2121    1.0000 </r>
       <r>  -19.2120    1.0000 </r>
       <r>  -19.2120    1.0000 </r>
       <r>  -19.2120    1.0000 </r>
       <r>  -19.2118    1.0000 </r>
       <r>  -19.2118    1.0000 </r>
       <r>  -19.2118    1.0000 </r>
       <r>  -19.2117    1.0000 </r>
       <r>  -19.2116    1.0000 </r>
       <r>  -19.2115    1.0000 </r>
       <r>  -19.2114    1.0000 </r>
       <r>  -19.2113    1.0000 </r>
       <r>  -19.2113    1.0000 </r>
       <r>  -19.2112    1.0000 </r>
       <r>  -19.2110    1.0000 </r>
       <r>  -19.2109    1.0000 </r>
       <r>  -19.2108    1.0000 </r>
       <r>  -19.2107    1.0000 </r>
       <r>  -19.2107    1.0000 </r>
       <r>  -19.2107    1.0000 </r>
       <r>  -19.2105    1.0000 </r>
       <r>  -19.2104    1.0000 </r>
       <r>  -19.2102    1.0000 </r>
       <r>  -19.2101    1.0000 </r>
       <r>  -19.2101    1.0000 </r>
       <r>  -19.2100    1.0000 </r>
       <r>  -19.2100    1.0000 </r>
       <r>  -19.2098    1.0000 </r>
       <r>  -19.2095    1.0000 </r>
       <r>  -19.2095    1.0000 </r>
       <r>  -19.2094    1.0000 </r>
       <r>  -19.2094    1.0000 </r>
       <r>  -19.2092    1.0000 </r>
       <r>  -19.2092    1.0000 </r>
       <r>  -19.2092    1.0000 </r>
       <r>  -19.2091    1.0000 </r>
       <r>  -19.2091    1.0000 </r>
       <r>  -19.2091    1.0000 </r>
       <r>  -19.2091    1.0000 </r>
       <r>  -19.2091    1.0000 </r>
       <r>  -19.2090    1.0000 </r>
       <r>  -19.2090    1.0000 </r>
       <r>  -19.2089    1.0000 </r>
       <r>  -19.2088    1.0000 </r>
       <r>  -19.2088    1.0000 </r>
       <r>  -19.2088    1.0000 </r>
       <r>  -19.2088    1.0000 </r>
       <r>  -19.2088    1.0000 </r>
       <r>  -19.2084    1.0000 </r>
       <r>  -19.2080    1.0000 </r>
       <r>  -19.2080    1.0000 </r>
       <r>  -19.2079    1.0000 </r>
       <r>  -19.2079    1.0000 </r>
       <r>  -19.2079    1.0000 </r>
       <r>  -19.2079    1.0000 </r>
       <r>  -19.2078    1.0000 </r>
       <r>  -19.2076    1.0000 </r>
       <r>  -19.2076    1.0000 </r>
       <r>  -19.2076    1.0000 </r>
       <r>  -19.2075    1.0000 </r>
       <r>  -19.1958    1.0000 </r>
       <r>  -19.1957    1.0000 </r>
       <r>  -19.1957    1.0000 </r>
       <r>  -19.1956    1.0000 </r>
       <r>  -19.1954    1.0000 </r>
       <r>  -19.1954    1.0000 </r>
       <r>  -19.1953    1.0000 </r>
       <r>  -19.1953    1.0000 </r>
       <r>  -19.1952    1.0000 </r>
       <r>  -19.1948    1.0000 </r>
       <r>  -19.1948    1.0000 </r>
       <r>  -19.1946    1.0000 </r>
       <r>  -19.1946    1.0000 </r>
       <r>  -19.1945    1.0000 </r>
       <r>  -19.1944    1.0000 </r>
       <r>  -19.1942    1.0000 </r>
       <r>  -19.1942    1.0000 </r>
       <r>  -19.1940    1.0000 </r>
       <r>  -19.1940    1.0000 </r>
       <r>  -19.1938    1.0000 </r>
       <r>  -19.1938    1.0000 </r>
       <r>  -19.1938    1.0000 </r>
       <r>  -19.1937    1.0000 </r>
       <r>  -19.1936    1.0000 </r>
       <r>  -19.1936    1.0000 </r>
       <r>  -19.1935    1.0000 </r>
       <r>  -19.1935    1.0000 </r>
       <r>  -19.1934    1.0000 </r>
       <r>  -19.1934    1.0000 </r>
       <r>  -19.1934    1.0000 </r>
       <r>  -19.1934    1.0000 </r>
       <r>  -19.1933    1.0000 </r>
       <r>  -19.1932    1.0000 </r>
       <r>  -19.1932    1.0000 </r>
       <r>  -19.1932    1.0000 </r>
       <r>  -19.1931    1.0000 </r>
       <r>  -19.1931    1.0000 </r>
       <r>  -19.1930    1.0000 </r>
       <r>  -19.1930    1.0000 </r>
       <r>  -19.1929    1.0000 </r>
       <r>  -19.1929    1.0000 </r>
       <r>  -19.1928    1.0000 </r>
       <r>  -19.1927    1.0000 </r>
       <r>  -19.1927    1.0000 </r>
       <r>  -19.1926    1.0000 </r>
       <r>  -19.1926    1.0000 </r>
       <r>  -19.1925    1.0000 </r>
       <r>  -19.1925    1.0000 </r>
       <r>  -19.1925    1.0000 </r>
       <r>  -19.1924    1.0000 </r>
       <r>  -19.1924    1.0000 </r>
       <r>  -19.1924    1.0000 </r>
       <r>  -19.1923    1.0000 </r>
       <r>  -19.1922    1.0000 </r>
       <r>  -19.1922    1.0000 </r>
       <r>  -19.1922    1.0000 </r>
       <r>  -19.1921    1.0000 </r>
       <r>  -19.1921    1.0000 </r>
       <r>  -19.1920    1.0000 </r>
       <r>  -19.1919    1.0000 </r>
       <r>  -19.1919    1.0000 </r>
       <r>  -19.1919    1.0000 </r>
       <r>  -19.1918    1.0000 </r>
       <r>  -19.1918    1.0000 </r>
       <r>  -19.1918    1.0000 </r>
       <r>  -19.1917    1.0000 </r>
       <r>  -19.1916    1.0000 </r>
       <r>  -19.1914    1.0000 </r>
       <r>  -19.1914    1.0000 </r>
       <r>  -19.1913    1.0000 </r>
       <r>  -19.1913    1.0000 </r>
       <r>  -19.1912    1.0000 </r>
       <r>  -19.1912    1.0000 </r>
       <r>  -19.1912    1.0000 </r>
       <r>  -19.1911    1.0000 </r>
       <r>  -19.1910    1.0000 </r>
       <r>  -19.1910    1.0000 </r>
       <r>  -19.1910    1.0000 </r>
       <r>  -19.1910    1.0000 </r>
       <r>  -19.1909    1.0000 </r>
       <r>  -19.1909    1.0000 </r>
       <r>  -19.1909    1.0000 </r>
       <r>  -19.1909    1.0000 </r>
       <r>  -19.1908    1.0000 </r>
       <r>  -19.1908    1.0000 </r>
       <r>  -19.1908    1.0000 </r>
       <r>  -19.1908    1.0000 </r>
       <r>  -19.1907    1.0000 </r>
       <r>  -19.1907    1.0000 </r>
       <r>  -19.1907    1.0000 </r>
       <r>  -19.1907    1.0000 </r>
       <r>  -19.1907    1.0000 </r>
       <r>  -19.1906    1.0000 </r>
       <r>  -19.1906    1.0000 </r>
       <r>  -19.1905    1.0000 </r>
       <r>  -19.1904    1.0000 </r>
       <r>  -19.1904    1.0000 </r>
       <r>  -19.1904    1.0000 </r>
       <r>  -19.1903    1.0000 </r>
       <r>  -19.1903    1.0000 </r>
       <r>  -19.1903    1.0000 </r>
       <r>  -19.1902    1.0000 </r>
       <r>  -19.1902    1.0000 </r>
       <r>  -19.1902    1.0000 </r>
       <r>  -19.1901    1.0000 </r>
       <r>  -19.1900    1.0000 </r>
       <r>  -19.1900    1.0000 </r>
       <r>  -19.1900    1.0000 </r>
       <r>  -19.1899    1.0000 </r>
       <r>  -19.1899    1.0000 </r>
       <r>  -19.1899    1.0000 </r>
       <r>  -19.1898    1.0000 </r>
       <r>  -19.1897    1.0000 </r>
       <r>  -19.1895    1.0000 </r>
       <r>  -19.1894    1.0000 </r>
       <r>  -19.1893    1.0000 </r>
       <r>  -19.1893    1.0000 </r>
       <r>  -19.1892    1.0000 </r>
       <r>  -19.1891    1.0000 </r>
       <r>  -19.1889    1.0000 </r>
       <r>  -19.1889    1.0000 </r>
       <r>  -19.1888    1.0000 </r>
       <r>  -19.1887    1.0000 </r>
       <r>  -19.1887    1.0000 </r>
       <r>  -19.1886    1.0000 </r>
       <r>  -19.1884    1.0000 </r>
       <r>  -19.1883    1.0000 </r>
       <r>  -19.1883    1.0000 </r>
       <r>   -6.8523    1.0000 </r>
       <r>   -6.7679    1.0000 </r>
       <r>   -6.7675    1.0000 </r>
       <r>   -6.5172    1.0000 </r>
       <r>   -6.5168    1.0000 </r>
       <r>   -6.1940    1.0000 </r>
       <r>   -6.1126    1.0000 </r>
       <r>   -6.1120    1.0000 </r>
       <r>   -6.1119    1.0000 </r>
       <r>   -6.1114    1.0000 </r>
       <r>   -5.8692    1.0000 </r>
       <r>   -5.8685    1.0000 </r>
       <r>   -5.5858    1.0000 </r>
       <r>   -5.5850    1.0000 </r>
       <r>   -5.5849    1.0000 </r>
       <r>   -5.5844    1.0000 </r>
       <r>   -5.5421    1.0000 </r>
       <r>   -5.5417    1.0000 </r>
       <r>   -5.4765    1.0000 </r>
       <r>   -5.4760    1.0000 </r>
       <r>   -5.4760    1.0000 </r>
       <r>   -5.4754    1.0000 </r>
       <r>   -5.3537    1.0000 </r>
       <r>   -5.3531    1.0000 </r>
       <r>   -5.2155    1.0000 </r>
       <r>   -5.2152    1.0000 </r>
       <r>   -5.0347    1.0000 </r>
       <r>   -5.0340    1.0000 </r>
       <r>   -5.0339    1.0000 </r>
       <r>   -5.0336    1.0000 </r>
       <r>   -4.9626    1.0000 </r>
       <r>   -4.9621    1.0000 </r>
       <r>   -4.8137    1.0000 </r>
       <r>   -4.8129    1.0000 </r>
       <r>   -4.7513    1.0000 </r>
       <r>   -4.7508    1.0000 </r>
       <r>   -4.7169    1.0000 </r>
       <r>   -4.7164    1.0000 </r>
       <r>   -4.6087    1.0000 </r>
       <r>   -4.6082    1.0000 </r>
       <r>   -4.6082    1.0000 </r>
       <r>   -4.6075    1.0000 </r>
       <r>   -4.4145    1.0000 </r>
       <r>   -4.4136    1.0000 </r>
       <r>   -4.4136    1.0000 </r>
       <r>   -4.4131    1.0000 </r>
       <r>   -4.3015    1.0000 </r>
       <r>   -4.3010    1.0000 </r>
       <r>   -4.1305    1.0000 </r>
       <r>   -4.1301    1.0000 </r>
       <r>   -4.1236    1.0000 </r>
       <r>   -4.1217    1.0000 </r>
       <r>   -4.1211    1.0000 </r>
       <r>   -4.1211    1.0000 </r>
       <r>   -4.1205    1.0000 </r>
       <r>   -4.1187    1.0000 </r>
       <r>   -4.1184    1.0000 </r>
       <r>   -3.7911    1.0000 </r>
       <r>   -3.7907    1.0000 </r>
       <r>   -3.7906    1.0000 </r>
       <r>   -3.7903    1.0000 </r>
       <r>   -3.7039    1.0000 </r>
       <r>   -3.7033    1.0000 </r>
       <r>   -3.5799    1.0000 </r>
       <r>   -2.6293    1.0000 </r>
       <r>   -2.4327    1.0000 </r>
       <r>   -2.4322    1.0000 </r>
       <r>   -2.3759    1.0000 </r>
       <r>   -2.3754    1.0000 </r>
       <r>   -2.3753    1.0000 </r>
       <r>   -2.3746    1.0000 </r>
       <r>   -2.0633    1.0000 </r>
       <r>   -2.0627    1.0000 </r>
       <r>   -2.0439    1.0000 </r>
       <r>   -2.0429    1.0000 </r>
       <r>   -2.0428    1.0000 </r>
       <r>   -2.0425    1.0000 </r>
       <r>   -2.0223    1.0000 </r>
       <r>   -1.9574    1.0000 </r>
       <r>   -1.9565    1.0000 </r>
       <r>   -1.9295    1.0000 </r>
       <r>   -1.9289    1.0000 </r>
       <r>   -1.8645    1.0000 </r>
       <r>   -1.8638    1.0000 </r>
       <r>   -1.8298    1.0000 </r>
       <r>   -1.8292    1.0000 </r>
       <r>   -1.7281    1.0000 </r>
       <r>   -1.7269    1.0000 </r>
       <r>   -1.7268    1.0000 </r>
       <r>   -1.7267    1.0000 </r>
       <r>   -1.7037    1.0000 </r>
       <r>   -1.7033    1.0000 </r>
       <r>   -1.7032    1.0000 </r>
       <r>   -1.7024    1.0000 </r>
       <r>   -1.4920    1.0000 </r>
       <r>   -1.4918    1.0000 </r>
       <r>   -1.4917    1.0000 </r>
       <r>   -1.4906    1.0000 </r>
       <r>   -1.2170    1.0000 </r>
       <r>   -1.2163    1.0000 </r>
       <r>   -1.1756    1.0000 </r>
       <r>   -1.1750    1.0000 </r>
       <r>   -0.9989    1.0000 </r>
       <r>   -0.9983    1.0000 </r>
       <r>   -0.8625    1.0000 </r>
       <r>   -0.8618    1.0000 </r>
       <r>   -0.5881    1.0000 </r>
       <r>   -0.5873    1.0000 </r>
       <r>   -0.4894    1.0000 </r>
       <r>   -0.4892    1.0000 </r>
       <r>   -0.4889    1.0000 </r>
       <r>   -0.4882    1.0000 </r>
       <r>   -0.3138    1.0000 </r>
       <r>   -0.3128    1.0000 </r>
       <r>   -0.3128    1.0000 </r>
       <r>   -0.3123    1.0000 </r>
       <r>    0.2643    1.0000 </r>
       <r>    0.2650    1.0000 </r>
       <r>    0.7359    1.0000 </r>
       <r>    0.7362    1.0000 </r>
       <r>    0.7364    1.0000 </r>
       <r>    0.7371    1.0000 </r>
       <r>    0.8140    1.0000 </r>
       <r>    0.9578    1.0000 </r>
       <r>    0.9583    1.0000 </r>
       <r>    0.9586    1.0000 </r>
       <r>    0.9588    1.0000 </r>
       <r>    0.9590    1.0000 </r>
       <r>    0.9761    1.0000 </r>
       <r>    0.9764    1.0000 </r>
       <r>    1.1449    1.0000 </r>
       <r>    1.1452    1.0000 </r>
       <r>    1.2444    1.0000 </r>
       <r>    1.2446    1.0000 </r>
       <r>    1.2450    1.0000 </r>
       <r>    1.2452    1.0000 </r>
       <r>    1.3425    1.0000 </r>
       <r>    1.4035    1.0000 </r>
       <r>    1.4039    1.0000 </r>
       <r>    1.4281    1.0000 </r>
       <r>    1.4283    1.0000 </r>
       <r>    1.4285    1.0000 </r>
       <r>    1.4287    1.0000 </r>
       <r>    1.4970    1.0000 </r>
       <r>    1.4972    1.0000 </r>
       <r>    1.4975    1.0000 </r>
       <r>    1.4978    1.0000 </r>
       <r>    1.5858    1.0000 </r>
       <r>    1.5862    1.0000 </r>
       <r>    1.9367    1.0000 </r>
       <r>    1.9372    1.0000 </r>
       <r>    1.9910    1.0000 </r>
       <r>    1.9912    1.0000 </r>
       <r>    2.0113    1.0000 </r>
       <r>    2.0114    1.0000 </r>
       <r>    2.0298    1.0000 </r>
       <r>    2.0301    1.0000 </r>
       <r>    2.1434    1.0000 </r>
       <r>    2.1436    1.0000 </r>
       <r>    2.1436    1.0000 </r>
       <r>    2.1440    1.0000 </r>
       <r>    2.1876    1.0000 </r>
       <r>    2.1882    1.0000 </r>
       <r>    2.2068    1.0000 </r>
       <r>    2.2074    1.0000 </r>
       <r>    2.2274    1.0000 </r>
       <r>    2.2275    1.0000 </r>
       <r>    2.2278    1.0000 </r>
       <r>    2.2281    1.0000 </r>
       <r>    2.2713    1.0000 </r>
       <r>    2.2716    1.0000 </r>
       <r>    2.3334    1.0000 </r>
       <r>    2.3341    1.0000 </r>
       <r>    2.3758    1.0000 </r>
       <r>    2.3762    1.0000 </r>
       <r>    2.3872    1.0000 </r>
       <r>    2.3878    1.0000 </r>
       <r>    2.4123    1.0000 </r>
       <r>    2.4347    1.0000 </r>
       <r>    2.4350    1.0000 </r>
       <r>    2.4353    1.0000 </r>
       <r>    2.4357    1.0000 </r>
       <r>    2.4953    1.0000 </r>
       <r>    2.4961    1.0000 </r>
       <r>    2.4962    1.0000 </r>
       <r>    2.4965    1.0000 </r>
       <r>    2.5166    1.0000 </r>
       <r>    2.5172    1.0000 </r>
       <r>    2.5926    1.0000 </r>
       <r>    2.5932    1.0000 </r>
       <r>    2.5934    1.0000 </r>
       <r>    2.5937    1.0000 </r>
       <r>    2.6745    1.0000 </r>
       <r>    2.6750    1.0000 </r>
       <r>    2.6752    1.0000 </r>
       <r>    2.6754    1.0000 </r>
       <r>    2.6852    1.0000 </r>
       <r>    2.6853    1.0000 </r>
       <r>    2.7080    1.0000 </r>
       <r>    2.8028    1.0000 </r>
       <r>    2.8034    1.0000 </r>
       <r>    2.8088    1.0000 </r>
       <r>    2.8095    1.0000 </r>
       <r>    2.9059    1.0000 </r>
       <r>    2.9068    1.0000 </r>
       <r>    2.9071    1.0000 </r>
       <r>    2.9072    1.0000 </r>
       <r>    2.9528    1.0000 </r>
       <r>    3.0158    1.0000 </r>
       <r>    3.0165    1.0000 </r>
       <r>    3.1077    1.0000 </r>
       <r>    3.1081    1.0000 </r>
       <r>    3.1083    1.0000 </r>
       <r>    3.1086    1.0000 </r>
       <r>    3.1559    1.0000 </r>
       <r>    3.1578    1.0000 </r>
       <r>    3.1582    1.0000 </r>
       <r>    3.1589    1.0000 </r>
       <r>    3.1590    1.0000 </r>
       <r>    3.1593    1.0000 </r>
       <r>    3.1595    1.0000 </r>
       <r>    3.3337    1.0000 </r>
       <r>    3.3346    1.0000 </r>
       <r>    3.3938    1.0000 </r>
       <r>    3.3942    1.0000 </r>
       <r>    3.4138    1.0000 </r>
       <r>    3.4142    1.0000 </r>
       <r>    3.4589    1.0000 </r>
       <r>    3.4596    1.0000 </r>
       <r>    3.4713    1.0000 </r>
       <r>    3.4715    1.0000 </r>
       <r>    3.4988    1.0000 </r>
       <r>    3.5001    1.0000 </r>
       <r>    3.5002    1.0000 </r>
       <r>    3.5003    1.0000 </r>
       <r>    3.6452    1.0000 </r>
       <r>    3.6460    1.0000 </r>
       <r>    3.7355    1.0000 </r>
       <r>    3.7364    1.0000 </r>
       <r>    3.7365    1.0000 </r>
       <r>    3.7369    1.0000 </r>
       <r>    4.0465    1.0000 </r>
       <r>    4.0473    1.0000 </r>
       <r>    4.0568    1.0000 </r>
       <r>    4.0572    1.0000 </r>
       <r>    4.0574    1.0000 </r>
       <r>    4.0581    1.0000 </r>
       <r>    4.2409    1.0000 </r>
       <r>    4.3034    1.0000 </r>
       <r>    4.3044    1.0000 </r>
       <r>    4.3326    1.0000 </r>
       <r>    4.3335    1.0000 </r>
       <r>    4.4235    1.0000 </r>
       <r>    4.4244    1.0000 </r>
       <r>    4.4905    1.0000 </r>
       <r>    4.9704    1.0000 </r>
       <r>    6.0213    0.0000 </r>
       <r>    6.0219    0.0000 </r>
       <r>    6.1073    0.0000 </r>
       <r>    6.3301    0.0000 </r>
       <r>    6.3305    0.0000 </r>
       <r>    6.4851    0.0000 </r>
       <r>    6.4856    0.0000 </r>
       <r>    6.6371    0.0000 </r>
       <r>    6.6374    0.0000 </r>
       <r>    6.6452    0.0000 </r>
       <r>    6.6455    0.0000 </r>
       <r>    6.6458    0.0000 </r>
       <r>    6.6463    0.0000 </r>
       <r>    6.6567    0.0000 </r>
       <r>    6.6570    0.0000 </r>
       <r>    6.6641    0.0000 </r>
       <r>    6.8689    0.0000 </r>
       <r>    6.8696    0.0000 </r>
       <r>    6.9484    0.0000 </r>
       <r>    6.9493    0.0000 </r>
       <r>    6.9982    0.0000 </r>
       <r>    6.9988    0.0000 </r>
       <r>    7.0438    0.0000 </r>
       <r>    7.0444    0.0000 </r>
       <r>    7.0602    0.0000 </r>
       <r>    7.0609    0.0000 </r>
       <r>    7.1795    0.0000 </r>
       <r>    7.1800    0.0000 </r>
       <r>    7.1802    0.0000 </r>
       <r>    7.1804    0.0000 </r>
       <r>    7.1827    0.0000 </r>
       <r>    7.1829    0.0000 </r>
       <r>    7.2073    0.0000 </r>
       <r>    7.2077    0.0000 </r>
       <r>    7.2078    0.0000 </r>
       <r>    7.2083    0.0000 </r>
       <r>    7.2313    0.0000 </r>
       <r>    7.2315    0.0000 </r>
       <r>    7.2317    0.0000 </r>
       <r>    7.2319    0.0000 </r>
       <r>    7.2321    0.0000 </r>
       <r>    7.2998    0.0000 </r>
       <r>    7.3001    0.0000 </r>
       <r>    7.3666    0.0000 </r>
       <r>    7.3672    0.0000 </r>
       <r>    7.3673    0.0000 </r>
       <r>    7.3675    0.0000 </r>
       <r>    7.3846    0.0000 </r>
       <r>    7.3851    0.0000 </r>
       <r>    7.5163    0.0000 </r>
       <r>    7.5167    0.0000 </r>
       <r>    7.5172    0.0000 </r>
       <r>    7.5173    0.0000 </r>
       <r>    7.5414    0.0000 </r>
       <r>    7.5479    0.0000 </r>
       <r>    7.5483    0.0000 </r>
       <r>    7.5484    0.0000 </r>
       <r>    7.5489    0.0000 </r>
       <r>    7.6240    0.0000 </r>
       <r>    7.6244    0.0000 </r>
       <r>    7.6825    0.0000 </r>
       <r>    7.7017    0.0000 </r>
       <r>    7.7021    0.0000 </r>
       <r>    7.7291    0.0000 </r>
       <r>    7.7294    0.0000 </r>
       <r>    7.7819    0.0000 </r>
       <r>    7.7823    0.0000 </r>
       <r>    7.7826    0.0000 </r>
       <r>    7.7832    0.0000 </r>
       <r>    7.8826    0.0000 </r>
       <r>    7.8987    0.0000 </r>
       <r>    7.8991    0.0000 </r>
       <r>    7.9486    0.0000 </r>
       <r>    7.9488    0.0000 </r>
       <r>    8.0220    0.0000 </r>
       <r>    8.1605    0.0000 </r>
       <r>    8.1606    0.0000 </r>
       <r>    8.1608    0.0000 </r>
       <r>    8.1615    0.0000 </r>
       <r>    8.2460    0.0000 </r>
       <r>    8.2464    0.0000 </r>
       <r>    8.2517    0.0000 </r>
       <r>    8.2527    0.0000 </r>
       <r>    8.2528    0.0000 </r>
       <r>    8.2530    0.0000 </r>
       <r>    8.3599    0.0000 </r>
       <r>    8.3601    0.0000 </r>
       <r>    8.4034    0.0000 </r>
       <r>    8.4041    0.0000 </r>
       <r>    8.4264    0.0000 </r>
       <r>    8.4270    0.0000 </r>
       <r>    8.4276    0.0000 </r>
       <r>    8.4278    0.0000 </r>
       <r>    8.4313    0.0000 </r>
       <r>    8.4319    0.0000 </r>
       <r>    8.4321    0.0000 </r>
       <r>    8.4326    0.0000 </r>
       <r>    8.4689    0.0000 </r>
       <r>    8.4693    0.0000 </r>
       <r>    8.6107    0.0000 </r>
       <r>    8.6112    0.0000 </r>
       <r>    8.6124    0.0000 </r>
       <r>    8.6167    0.0000 </r>
       <r>    8.6172    0.0000 </r>
       <r>    8.6174    0.0000 </r>
       <r>    8.6175    0.0000 </r>
       <r>    8.6191    0.0000 </r>
       <r>    8.6197    0.0000 </r>
       <r>    8.6735    0.0000 </r>
       <r>    8.6741    0.0000 </r>
       <r>    8.7508    0.0000 </r>
       <r>    8.7515    0.0000 </r>
       <r>    8.7776    0.0000 </r>
       <r>    8.7783    0.0000 </r>
       <r>    8.7995    0.0000 </r>
       <r>    8.7997    0.0000 </r>
       <r>    8.8001    0.0000 </r>
       <r>    8.8005    0.0000 </r>
       <r>    8.8131    0.0000 </r>
       <r>    8.8136    0.0000 </r>
       <r>    8.8139    0.0000 </r>
       <r>    8.8142    0.0000 </r>
       <r>    8.8285    0.0000 </r>
       <r>    8.8290    0.0000 </r>
       <r>    8.8737    0.0000 </r>
       <r>    8.9968    0.0000 </r>
       <r>    8.9973    0.0000 </r>
       <r>    9.1381    0.0000 </r>
      </set>
      <set comment="kpoint 10">
       <r>  -19.2230    1.0000 </r>
       <r>  -19.2229    1.0000 </r>
       <r>  -19.2229    1.0000 </r>
       <r>  -19.2228    1.0000 </r>
       <r>  -19.2223    1.0000 </r>
       <r>  -19.2219    1.0000 </r>
       <r>  -19.2219    1.0000 </r>
       <r>  -19.2218    1.0000 </r>
       <r>  -19.2218    1.0000 </r>
       <r>  -19.2218    1.0000 </r>
       <r>  -19.2218    1.0000 </r>
       <r>  -19.2206    1.0000 </r>
       <r>  -19.2206    1.0000 </r>
       <r>  -19.2204    1.0000 </r>
       <r>  -19.2203    1.0000 </r>
       <r>  -19.2201    1.0000 </r>
       <r>  -19.2201    1.0000 </r>
       <r>  -19.2200    1.0000 </r>
       <r>  -19.2200    1.0000 </r>
       <r>  -19.2199    1.0000 </r>
       <r>  -19.2198    1.0000 </r>
       <r>  -19.2197    1.0000 </r>
       <r>  -19.2196    1.0000 </r>
       <r>  -19.2191    1.0000 </r>
       <r>  -19.2191    1.0000 </r>
       <r>  -19.2191    1.0000 </r>
       <r>  -19.2190    1.0000 </r>
       <r>  -19.2190    1.0000 </r>
       <r>  -19.2190    1.0000 </r>
       <r>  -19.2189    1.0000 </r>
       <r>  -19.2189    1.0000 </r>
       <r>  -19.2189    1.0000 </r>
       <r>  -19.2188    1.0000 </r>
       <r>  -19.2188    1.0000 </r>
       <r>  -19.2187    1.0000 </r>
       <r>  -19.2187    1.0000 </r>
       <r>  -19.2187    1.0000 </r>
       <r>  -19.2186    1.0000 </r>
       <r>  -19.2186    1.0000 </r>
       <r>  -19.2186    1.0000 </r>
       <r>  -19.2185    1.0000 </r>
       <r>  -19.2185    1.0000 </r>
       <r>  -19.2184    1.0000 </r>
       <r>  -19.2184    1.0000 </r>
       <r>  -19.2184    1.0000 </r>
       <r>  -19.2183    1.0000 </r>
       <r>  -19.2183    1.0000 </r>
       <r>  -19.2182    1.0000 </r>
       <r>  -19.2181    1.0000 </r>
       <r>  -19.2181    1.0000 </r>
       <r>  -19.2181    1.0000 </r>
       <r>  -19.2180    1.0000 </r>
       <r>  -19.2180    1.0000 </r>
       <r>  -19.2180    1.0000 </r>
       <r>  -19.2179    1.0000 </r>
       <r>  -19.2179    1.0000 </r>
       <r>  -19.2179    1.0000 </r>
       <r>  -19.2179    1.0000 </r>
       <r>  -19.2178    1.0000 </r>
       <r>  -19.2178    1.0000 </r>
       <r>  -19.2177    1.0000 </r>
       <r>  -19.2177    1.0000 </r>
       <r>  -19.2176    1.0000 </r>
       <r>  -19.2176    1.0000 </r>
       <r>  -19.2172    1.0000 </r>
       <r>  -19.2166    1.0000 </r>
       <r>  -19.2163    1.0000 </r>
       <r>  -19.2163    1.0000 </r>
       <r>  -19.2163    1.0000 </r>
       <r>  -19.2162    1.0000 </r>
       <r>  -19.2154    1.0000 </r>
       <r>  -19.2154    1.0000 </r>
       <r>  -19.2152    1.0000 </r>
       <r>  -19.2151    1.0000 </r>
       <r>  -19.2151    1.0000 </r>
       <r>  -19.2144    1.0000 </r>
       <r>  -19.2144    1.0000 </r>
       <r>  -19.2144    1.0000 </r>
       <r>  -19.2143    1.0000 </r>
       <r>  -19.2143    1.0000 </r>
       <r>  -19.2141    1.0000 </r>
       <r>  -19.2140    1.0000 </r>
       <r>  -19.2139    1.0000 </r>
       <r>  -19.2139    1.0000 </r>
       <r>  -19.2139    1.0000 </r>
       <r>  -19.2138    1.0000 </r>
       <r>  -19.2138    1.0000 </r>
       <r>  -19.2137    1.0000 </r>
       <r>  -19.2136    1.0000 </r>
       <r>  -19.2136    1.0000 </r>
       <r>  -19.2135    1.0000 </r>
       <r>  -19.2135    1.0000 </r>
       <r>  -19.2135    1.0000 </r>
       <r>  -19.2134    1.0000 </r>
       <r>  -19.2134    1.0000 </r>
       <r>  -19.2133    1.0000 </r>
       <r>  -19.2133    1.0000 </r>
       <r>  -19.2133    1.0000 </r>
       <r>  -19.2132    1.0000 </r>
       <r>  -19.2132    1.0000 </r>
       <r>  -19.2131    1.0000 </r>
       <r>  -19.2131    1.0000 </r>
       <r>  -19.2131    1.0000 </r>
       <r>  -19.2131    1.0000 </r>
       <r>  -19.2131    1.0000 </r>
       <r>  -19.2130    1.0000 </r>
       <r>  -19.2130    1.0000 </r>
       <r>  -19.2130    1.0000 </r>
       <r>  -19.2130    1.0000 </r>
       <r>  -19.2130    1.0000 </r>
       <r>  -19.2129    1.0000 </r>
       <r>  -19.2129    1.0000 </r>
       <r>  -19.2129    1.0000 </r>
       <r>  -19.2128    1.0000 </r>
       <r>  -19.2128    1.0000 </r>
       <r>  -19.2128    1.0000 </r>
       <r>  -19.2127    1.0000 </r>
       <r>  -19.2127    1.0000 </r>
       <r>  -19.2126    1.0000 </r>
       <r>  -19.2126    1.0000 </r>
       <r>  -19.2125    1.0000 </r>
       <r>  -19.2125    1.0000 </r>
       <r>  -19.2124    1.0000 </r>
       <r>  -19.2123    1.0000 </r>
       <r>  -19.2123    1.0000 </r>
       <r>  -19.2123    1.0000 </r>
       <r>  -19.2122    1.0000 </r>
       <r>  -19.2122    1.0000 </r>
       <r>  -19.2122    1.0000 </r>
       <r>  -19.2121    1.0000 </r>
       <r>  -19.2121    1.0000 </r>
       <r>  -19.2121    1.0000 </r>
       <r>  -19.2121    1.0000 </r>
       <r>  -19.2120    1.0000 </r>
       <r>  -19.2120    1.0000 </r>
       <r>  -19.2120    1.0000 </r>
       <r>  -19.2119    1.0000 </r>
       <r>  -19.2118    1.0000 </r>
       <r>  -19.2118    1.0000 </r>
       <r>  -19.2117    1.0000 </r>
       <r>  -19.2115    1.0000 </r>
       <r>  -19.2115    1.0000 </r>
       <r>  -19.2114    1.0000 </r>
       <r>  -19.2114    1.0000 </r>
       <r>  -19.2113    1.0000 </r>
       <r>  -19.2110    1.0000 </r>
       <r>  -19.2109    1.0000 </r>
       <r>  -19.2108    1.0000 </r>
       <r>  -19.2108    1.0000 </r>
       <r>  -19.2106    1.0000 </r>
       <r>  -19.2106    1.0000 </r>
       <r>  -19.2105    1.0000 </r>
       <r>  -19.2105    1.0000 </r>
       <r>  -19.2105    1.0000 </r>
       <r>  -19.2105    1.0000 </r>
       <r>  -19.2101    1.0000 </r>
       <r>  -19.2101    1.0000 </r>
       <r>  -19.2100    1.0000 </r>
       <r>  -19.2100    1.0000 </r>
       <r>  -19.2098    1.0000 </r>
       <r>  -19.2095    1.0000 </r>
       <r>  -19.2095    1.0000 </r>
       <r>  -19.2095    1.0000 </r>
       <r>  -19.2095    1.0000 </r>
       <r>  -19.2092    1.0000 </r>
       <r>  -19.2092    1.0000 </r>
       <r>  -19.2092    1.0000 </r>
       <r>  -19.2091    1.0000 </r>
       <r>  -19.2091    1.0000 </r>
       <r>  -19.2091    1.0000 </r>
       <r>  -19.2091    1.0000 </r>
       <r>  -19.2091    1.0000 </r>
       <r>  -19.2090    1.0000 </r>
       <r>  -19.2090    1.0000 </r>
       <r>  -19.2089    1.0000 </r>
       <r>  -19.2089    1.0000 </r>
       <r>  -19.2089    1.0000 </r>
       <r>  -19.2088    1.0000 </r>
       <r>  -19.2088    1.0000 </r>
       <r>  -19.2088    1.0000 </r>
       <r>  -19.2084    1.0000 </r>
       <r>  -19.2080    1.0000 </r>
       <r>  -19.2080    1.0000 </r>
       <r>  -19.2080    1.0000 </r>
       <r>  -19.2079    1.0000 </r>
       <r>  -19.2079    1.0000 </r>
       <r>  -19.2079    1.0000 </r>
       <r>  -19.2078    1.0000 </r>
       <r>  -19.2076    1.0000 </r>
       <r>  -19.2076    1.0000 </r>
       <r>  -19.2075    1.0000 </r>
       <r>  -19.2075    1.0000 </r>
       <r>  -19.1958    1.0000 </r>
       <r>  -19.1958    1.0000 </r>
       <r>  -19.1957    1.0000 </r>
       <r>  -19.1955    1.0000 </r>
       <r>  -19.1954    1.0000 </r>
       <r>  -19.1952    1.0000 </r>
       <r>  -19.1952    1.0000 </r>
       <r>  -19.1952    1.0000 </r>
       <r>  -19.1951    1.0000 </r>
       <r>  -19.1949    1.0000 </r>
       <r>  -19.1949    1.0000 </r>
       <r>  -19.1947    1.0000 </r>
       <r>  -19.1947    1.0000 </r>
       <r>  -19.1945    1.0000 </r>
       <r>  -19.1945    1.0000 </r>
       <r>  -19.1940    1.0000 </r>
       <r>  -19.1940    1.0000 </r>
       <r>  -19.1940    1.0000 </r>
       <r>  -19.1939    1.0000 </r>
       <r>  -19.1938    1.0000 </r>
       <r>  -19.1938    1.0000 </r>
       <r>  -19.1938    1.0000 </r>
       <r>  -19.1937    1.0000 </r>
       <r>  -19.1936    1.0000 </r>
       <r>  -19.1936    1.0000 </r>
       <r>  -19.1935    1.0000 </r>
       <r>  -19.1935    1.0000 </r>
       <r>  -19.1935    1.0000 </r>
       <r>  -19.1934    1.0000 </r>
       <r>  -19.1934    1.0000 </r>
       <r>  -19.1934    1.0000 </r>
       <r>  -19.1934    1.0000 </r>
       <r>  -19.1934    1.0000 </r>
       <r>  -19.1932    1.0000 </r>
       <r>  -19.1931    1.0000 </r>
       <r>  -19.1930    1.0000 </r>
       <r>  -19.1930    1.0000 </r>
       <r>  -19.1930    1.0000 </r>
       <r>  -19.1929    1.0000 </r>
       <r>  -19.1929    1.0000 </r>
       <r>  -19.1928    1.0000 </r>
       <r>  -19.1928    1.0000 </r>
       <r>  -19.1927    1.0000 </r>
       <r>  -19.1927    1.0000 </r>
       <r>  -19.1927    1.0000 </r>
       <r>  -19.1926    1.0000 </r>
       <r>  -19.1926    1.0000 </r>
       <r>  -19.1926    1.0000 </r>
       <r>  -19.1925    1.0000 </r>
       <r>  -19.1925    1.0000 </r>
       <r>  -19.1924    1.0000 </r>
       <r>  -19.1924    1.0000 </r>
       <r>  -19.1923    1.0000 </r>
       <r>  -19.1922    1.0000 </r>
       <r>  -19.1922    1.0000 </r>
       <r>  -19.1922    1.0000 </r>
       <r>  -19.1921    1.0000 </r>
       <r>  -19.1921    1.0000 </r>
       <r>  -19.1920    1.0000 </r>
       <r>  -19.1920    1.0000 </r>
       <r>  -19.1919    1.0000 </r>
       <r>  -19.1918    1.0000 </r>
       <r>  -19.1918    1.0000 </r>
       <r>  -19.1917    1.0000 </r>
       <r>  -19.1916    1.0000 </r>
       <r>  -19.1916    1.0000 </r>
       <r>  -19.1915    1.0000 </r>
       <r>  -19.1915    1.0000 </r>
       <r>  -19.1913    1.0000 </r>
       <r>  -19.1913    1.0000 </r>
       <r>  -19.1912    1.0000 </r>
       <r>  -19.1911    1.0000 </r>
       <r>  -19.1911    1.0000 </r>
       <r>  -19.1911    1.0000 </r>
       <r>  -19.1911    1.0000 </r>
       <r>  -19.1911    1.0000 </r>
       <r>  -19.1911    1.0000 </r>
       <r>  -19.1910    1.0000 </r>
       <r>  -19.1910    1.0000 </r>
       <r>  -19.1909    1.0000 </r>
       <r>  -19.1909    1.0000 </r>
       <r>  -19.1909    1.0000 </r>
       <r>  -19.1909    1.0000 </r>
       <r>  -19.1908    1.0000 </r>
       <r>  -19.1908    1.0000 </r>
       <r>  -19.1908    1.0000 </r>
       <r>  -19.1908    1.0000 </r>
       <r>  -19.1908    1.0000 </r>
       <r>  -19.1907    1.0000 </r>
       <r>  -19.1907    1.0000 </r>
       <r>  -19.1907    1.0000 </r>
       <r>  -19.1907    1.0000 </r>
       <r>  -19.1906    1.0000 </r>
       <r>  -19.1906    1.0000 </r>
       <r>  -19.1905    1.0000 </r>
       <r>  -19.1904    1.0000 </r>
       <r>  -19.1904    1.0000 </r>
       <r>  -19.1904    1.0000 </r>
       <r>  -19.1903    1.0000 </r>
       <r>  -19.1903    1.0000 </r>
       <r>  -19.1903    1.0000 </r>
       <r>  -19.1903    1.0000 </r>
       <r>  -19.1903    1.0000 </r>
       <r>  -19.1902    1.0000 </r>
       <r>  -19.1901    1.0000 </r>
       <r>  -19.1901    1.0000 </r>
       <r>  -19.1900    1.0000 </r>
       <r>  -19.1900    1.0000 </r>
       <r>  -19.1900    1.0000 </r>
       <r>  -19.1899    1.0000 </r>
       <r>  -19.1899    1.0000 </r>
       <r>  -19.1898    1.0000 </r>
       <r>  -19.1897    1.0000 </r>
       <r>  -19.1894    1.0000 </r>
       <r>  -19.1894    1.0000 </r>
       <r>  -19.1893    1.0000 </r>
       <r>  -19.1892    1.0000 </r>
       <r>  -19.1891    1.0000 </r>
       <r>  -19.1891    1.0000 </r>
       <r>  -19.1889    1.0000 </r>
       <r>  -19.1889    1.0000 </r>
       <r>  -19.1889    1.0000 </r>
       <r>  -19.1888    1.0000 </r>
       <r>  -19.1887    1.0000 </r>
       <r>  -19.1886    1.0000 </r>
       <r>  -19.1884    1.0000 </r>
       <r>  -19.1883    1.0000 </r>
       <r>  -19.1882    1.0000 </r>
       <r>   -6.8523    1.0000 </r>
       <r>   -6.7677    1.0000 </r>
       <r>   -6.7677    1.0000 </r>
       <r>   -6.5170    1.0000 </r>
       <r>   -6.5170    1.0000 </r>
       <r>   -6.1940    1.0000 </r>
       <r>   -6.1120    1.0000 </r>
       <r>   -6.1119    1.0000 </r>
       <r>   -6.1119    1.0000 </r>
       <r>   -6.1119    1.0000 </r>
       <r>   -5.8689    1.0000 </r>
       <r>   -5.8688    1.0000 </r>
       <r>   -5.5851    1.0000 </r>
       <r>   -5.5850    1.0000 </r>
       <r>   -5.5850    1.0000 </r>
       <r>   -5.5850    1.0000 </r>
       <r>   -5.5421    1.0000 </r>
       <r>   -5.5418    1.0000 </r>
       <r>   -5.4761    1.0000 </r>
       <r>   -5.4760    1.0000 </r>
       <r>   -5.4760    1.0000 </r>
       <r>   -5.4759    1.0000 </r>
       <r>   -5.3536    1.0000 </r>
       <r>   -5.3533    1.0000 </r>
       <r>   -5.2154    1.0000 </r>
       <r>   -5.2154    1.0000 </r>
       <r>   -5.0340    1.0000 </r>
       <r>   -5.0340    1.0000 </r>
       <r>   -5.0339    1.0000 </r>
       <r>   -5.0339    1.0000 </r>
       <r>   -4.9623    1.0000 </r>
       <r>   -4.9623    1.0000 </r>
       <r>   -4.8134    1.0000 </r>
       <r>   -4.8133    1.0000 </r>
       <r>   -4.7510    1.0000 </r>
       <r>   -4.7510    1.0000 </r>
       <r>   -4.7170    1.0000 </r>
       <r>   -4.7166    1.0000 </r>
       <r>   -4.6086    1.0000 </r>
       <r>   -4.6082    1.0000 </r>
       <r>   -4.6082    1.0000 </r>
       <r>   -4.6078    1.0000 </r>
       <r>   -4.4139    1.0000 </r>
       <r>   -4.4137    1.0000 </r>
       <r>   -4.4137    1.0000 </r>
       <r>   -4.4135    1.0000 </r>
       <r>   -4.3012    1.0000 </r>
       <r>   -4.3012    1.0000 </r>
       <r>   -4.1304    1.0000 </r>
       <r>   -4.1304    1.0000 </r>
       <r>   -4.1239    1.0000 </r>
       <r>   -4.1216    1.0000 </r>
       <r>   -4.1212    1.0000 </r>
       <r>   -4.1212    1.0000 </r>
       <r>   -4.1207    1.0000 </r>
       <r>   -4.1185    1.0000 </r>
       <r>   -4.1184    1.0000 </r>
       <r>   -3.7907    1.0000 </r>
       <r>   -3.7907    1.0000 </r>
       <r>   -3.7906    1.0000 </r>
       <r>   -3.7906    1.0000 </r>
       <r>   -3.7034    1.0000 </r>
       <r>   -3.7034    1.0000 </r>
       <r>   -3.5801    1.0000 </r>
       <r>   -2.6291    1.0000 </r>
       <r>   -2.4327    1.0000 </r>
       <r>   -2.4327    1.0000 </r>
       <r>   -2.3754    1.0000 </r>
       <r>   -2.3754    1.0000 </r>
       <r>   -2.3753    1.0000 </r>
       <r>   -2.3753    1.0000 </r>
       <r>   -2.0632    1.0000 </r>
       <r>   -2.0632    1.0000 </r>
       <r>   -2.0438    1.0000 </r>
       <r>   -2.0429    1.0000 </r>
       <r>   -2.0428    1.0000 </r>
       <r>   -2.0419    1.0000 </r>
       <r>   -2.0220    1.0000 </r>
       <r>   -1.9567    1.0000 </r>
       <r>   -1.9567    1.0000 </r>
       <r>   -1.9295    1.0000 </r>
       <r>   -1.9295    1.0000 </r>
       <r>   -1.8643    1.0000 </r>
       <r>   -1.8633    1.0000 </r>
       <r>   -1.8296    1.0000 </r>
       <r>   -1.8296    1.0000 </r>
       <r>   -1.7280    1.0000 </r>
       <r>   -1.7269    1.0000 </r>
       <r>   -1.7269    1.0000 </r>
       <r>   -1.7258    1.0000 </r>
       <r>   -1.7037    1.0000 </r>
       <r>   -1.7033    1.0000 </r>
       <r>   -1.7032    1.0000 </r>
       <r>   -1.7028    1.0000 </r>
       <r>   -1.4919    1.0000 </r>
       <r>   -1.4919    1.0000 </r>
       <r>   -1.4918    1.0000 </r>
       <r>   -1.4918    1.0000 </r>
       <r>   -1.2169    1.0000 </r>
       <r>   -1.2159    1.0000 </r>
       <r>   -1.1755    1.0000 </r>
       <r>   -1.1751    1.0000 </r>
       <r>   -0.9989    1.0000 </r>
       <r>   -0.9989    1.0000 </r>
       <r>   -0.8623    1.0000 </r>
       <r>   -0.8615    1.0000 </r>
       <r>   -0.5875    1.0000 </r>
       <r>   -0.5875    1.0000 </r>
       <r>   -0.4893    1.0000 </r>
       <r>   -0.4891    1.0000 </r>
       <r>   -0.4891    1.0000 </r>
       <r>   -0.4889    1.0000 </r>
       <r>   -0.3135    1.0000 </r>
       <r>   -0.3128    1.0000 </r>
       <r>   -0.3128    1.0000 </r>
       <r>   -0.3121    1.0000 </r>
       <r>    0.2643    1.0000 </r>
       <r>    0.2652    1.0000 </r>
       <r>    0.7358    1.0000 </r>
       <r>    0.7362    1.0000 </r>
       <r>    0.7363    1.0000 </r>
       <r>    0.7367    1.0000 </r>
       <r>    0.8141    1.0000 </r>
       <r>    0.9583    1.0000 </r>
       <r>    0.9583    1.0000 </r>
       <r>    0.9586    1.0000 </r>
       <r>    0.9587    1.0000 </r>
       <r>    0.9588    1.0000 </r>
       <r>    0.9761    1.0000 </r>
       <r>    0.9761    1.0000 </r>
       <r>    1.1452    1.0000 </r>
       <r>    1.1452    1.0000 </r>
       <r>    1.2446    1.0000 </r>
       <r>    1.2447    1.0000 </r>
       <r>    1.2449    1.0000 </r>
       <r>    1.2450    1.0000 </r>
       <r>    1.3427    1.0000 </r>
       <r>    1.4037    1.0000 </r>
       <r>    1.4037    1.0000 </r>
       <r>    1.4282    1.0000 </r>
       <r>    1.4284    1.0000 </r>
       <r>    1.4286    1.0000 </r>
       <r>    1.4288    1.0000 </r>
       <r>    1.4968    1.0000 </r>
       <r>    1.4968    1.0000 </r>
       <r>    1.4974    1.0000 </r>
       <r>    1.4975    1.0000 </r>
       <r>    1.5860    1.0000 </r>
       <r>    1.5860    1.0000 </r>
       <r>    1.9366    1.0000 </r>
       <r>    1.9366    1.0000 </r>
       <r>    1.9911    1.0000 </r>
       <r>    1.9911    1.0000 </r>
       <r>    2.0112    1.0000 </r>
       <r>    2.0112    1.0000 </r>
       <r>    2.0297    1.0000 </r>
       <r>    2.0304    1.0000 </r>
       <r>    2.1433    1.0000 </r>
       <r>    2.1436    1.0000 </r>
       <r>    2.1437    1.0000 </r>
       <r>    2.1439    1.0000 </r>
       <r>    2.1880    1.0000 </r>
       <r>    2.1880    1.0000 </r>
       <r>    2.2071    1.0000 </r>
       <r>    2.2075    1.0000 </r>
       <r>    2.2272    1.0000 </r>
       <r>    2.2272    1.0000 </r>
       <r>    2.2278    1.0000 </r>
       <r>    2.2278    1.0000 </r>
       <r>    2.2714    1.0000 </r>
       <r>    2.2714    1.0000 </r>
       <r>    2.3340    1.0000 </r>
       <r>    2.3340    1.0000 </r>
       <r>    2.3759    1.0000 </r>
       <r>    2.3759    1.0000 </r>
       <r>    2.3878    1.0000 </r>
       <r>    2.3878    1.0000 </r>
       <r>    2.4121    1.0000 </r>
       <r>    2.4347    1.0000 </r>
       <r>    2.4350    1.0000 </r>
       <r>    2.4353    1.0000 </r>
       <r>    2.4355    1.0000 </r>
       <r>    2.4956    1.0000 </r>
       <r>    2.4960    1.0000 </r>
       <r>    2.4962    1.0000 </r>
       <r>    2.4966    1.0000 </r>
       <r>    2.5167    1.0000 </r>
       <r>    2.5167    1.0000 </r>
       <r>    2.5929    1.0000 </r>
       <r>    2.5931    1.0000 </r>
       <r>    2.5934    1.0000 </r>
       <r>    2.5936    1.0000 </r>
       <r>    2.6747    1.0000 </r>
       <r>    2.6750    1.0000 </r>
       <r>    2.6750    1.0000 </r>
       <r>    2.6754    1.0000 </r>
       <r>    2.6850    1.0000 </r>
       <r>    2.6850    1.0000 </r>
       <r>    2.7079    1.0000 </r>
       <r>    2.8027    1.0000 </r>
       <r>    2.8037    1.0000 </r>
       <r>    2.8094    1.0000 </r>
       <r>    2.8095    1.0000 </r>
       <r>    2.9068    1.0000 </r>
       <r>    2.9069    1.0000 </r>
       <r>    2.9070    1.0000 </r>
       <r>    2.9070    1.0000 </r>
       <r>    2.9526    1.0000 </r>
       <r>    3.0158    1.0000 </r>
       <r>    3.0168    1.0000 </r>
       <r>    3.1078    1.0000 </r>
       <r>    3.1081    1.0000 </r>
       <r>    3.1084    1.0000 </r>
       <r>    3.1088    1.0000 </r>
       <r>    3.1561    1.0000 </r>
       <r>    3.1578    1.0000 </r>
       <r>    3.1583    1.0000 </r>
       <r>    3.1589    1.0000 </r>
       <r>    3.1590    1.0000 </r>
       <r>    3.1593    1.0000 </r>
       <r>    3.1600    1.0000 </r>
       <r>    3.3338    1.0000 </r>
       <r>    3.3340    1.0000 </r>
       <r>    3.3937    1.0000 </r>
       <r>    3.3946    1.0000 </r>
       <r>    3.4138    1.0000 </r>
       <r>    3.4138    1.0000 </r>
       <r>    3.4589    1.0000 </r>
       <r>    3.4591    1.0000 </r>
       <r>    3.4714    1.0000 </r>
       <r>    3.4715    1.0000 </r>
       <r>    3.4997    1.0000 </r>
       <r>    3.5000    1.0000 </r>
       <r>    3.5002    1.0000 </r>
       <r>    3.5006    1.0000 </r>
       <r>    3.6452    1.0000 </r>
       <r>    3.6455    1.0000 </r>
       <r>    3.7356    1.0000 </r>
       <r>    3.7362    1.0000 </r>
       <r>    3.7365    1.0000 </r>
       <r>    3.7371    1.0000 </r>
       <r>    4.0465    1.0000 </r>
       <r>    4.0467    1.0000 </r>
       <r>    4.0567    1.0000 </r>
       <r>    4.0572    1.0000 </r>
       <r>    4.0574    1.0000 </r>
       <r>    4.0579    1.0000 </r>
       <r>    4.2409    1.0000 </r>
       <r>    4.3035    1.0000 </r>
       <r>    4.3036    1.0000 </r>
       <r>    4.3334    1.0000 </r>
       <r>    4.3335    1.0000 </r>
       <r>    4.4236    1.0000 </r>
       <r>    4.4248    1.0000 </r>
       <r>    4.4901    1.0000 </r>
       <r>    4.9699    1.0000 </r>
       <r>    6.0214    0.0000 </r>
       <r>    6.0215    0.0000 </r>
       <r>    6.1070    0.0000 </r>
       <r>    6.3302    0.0000 </r>
       <r>    6.3302    0.0000 </r>
       <r>    6.4854    0.0000 </r>
       <r>    6.4854    0.0000 </r>
       <r>    6.6369    0.0000 </r>
       <r>    6.6374    0.0000 </r>
       <r>    6.6454    0.0000 </r>
       <r>    6.6454    0.0000 </r>
       <r>    6.6460    0.0000 </r>
       <r>    6.6460    0.0000 </r>
       <r>    6.6565    0.0000 </r>
       <r>    6.6570    0.0000 </r>
       <r>    6.6638    0.0000 </r>
       <r>    6.8695    0.0000 </r>
       <r>    6.8695    0.0000 </r>
       <r>    6.9489    0.0000 </r>
       <r>    6.9489    0.0000 </r>
       <r>    6.9982    0.0000 </r>
       <r>    6.9984    0.0000 </r>
       <r>    7.0438    0.0000 </r>
       <r>    7.0440    0.0000 </r>
       <r>    7.0607    0.0000 </r>
       <r>    7.0607    0.0000 </r>
       <r>    7.1795    0.0000 </r>
       <r>    7.1798    0.0000 </r>
       <r>    7.1802    0.0000 </r>
       <r>    7.1803    0.0000 </r>
       <r>    7.1829    0.0000 </r>
       <r>    7.1830    0.0000 </r>
       <r>    7.2074    0.0000 </r>
       <r>    7.2076    0.0000 </r>
       <r>    7.2080    0.0000 </r>
       <r>    7.2082    0.0000 </r>
       <r>    7.2313    0.0000 </r>
       <r>    7.2315    0.0000 </r>
       <r>    7.2318    0.0000 </r>
       <r>    7.2319    0.0000 </r>
       <r>    7.2323    0.0000 </r>
       <r>    7.2996    0.0000 </r>
       <r>    7.3001    0.0000 </r>
       <r>    7.3668    0.0000 </r>
       <r>    7.3672    0.0000 </r>
       <r>    7.3673    0.0000 </r>
       <r>    7.3676    0.0000 </r>
       <r>    7.3848    0.0000 </r>
       <r>    7.3848    0.0000 </r>
       <r>    7.5170    0.0000 </r>
       <r>    7.5171    0.0000 </r>
       <r>    7.5172    0.0000 </r>
       <r>    7.5172    0.0000 </r>
       <r>    7.5412    0.0000 </r>
       <r>    7.5480    0.0000 </r>
       <r>    7.5482    0.0000 </r>
       <r>    7.5485    0.0000 </r>
       <r>    7.5486    0.0000 </r>
       <r>    7.6242    0.0000 </r>
       <r>    7.6242    0.0000 </r>
       <r>    7.6827    0.0000 </r>
       <r>    7.7016    0.0000 </r>
       <r>    7.7021    0.0000 </r>
       <r>    7.7293    0.0000 </r>
       <r>    7.7293    0.0000 </r>
       <r>    7.7822    0.0000 </r>
       <r>    7.7823    0.0000 </r>
       <r>    7.7827    0.0000 </r>
       <r>    7.7827    0.0000 </r>
       <r>    7.8829    0.0000 </r>
       <r>    7.8988    0.0000 </r>
       <r>    7.8988    0.0000 </r>
       <r>    7.9488    0.0000 </r>
       <r>    7.9488    0.0000 </r>
       <r>    8.0218    0.0000 </r>
       <r>    8.1602    0.0000 </r>
       <r>    8.1604    0.0000 </r>
       <r>    8.1608    0.0000 </r>
       <r>    8.1610    0.0000 </r>
       <r>    8.2461    0.0000 </r>
       <r>    8.2462    0.0000 </r>
       <r>    8.2524    0.0000 </r>
       <r>    8.2527    0.0000 </r>
       <r>    8.2527    0.0000 </r>
       <r>    8.2531    0.0000 </r>
       <r>    8.3603    0.0000 </r>
       <r>    8.3603    0.0000 </r>
       <r>    8.4034    0.0000 </r>
       <r>    8.4035    0.0000 </r>
       <r>    8.4271    0.0000 </r>
       <r>    8.4273    0.0000 </r>
       <r>    8.4278    0.0000 </r>
       <r>    8.4279    0.0000 </r>
       <r>    8.4313    0.0000 </r>
       <r>    8.4319    0.0000 </r>
       <r>    8.4322    0.0000 </r>
       <r>    8.4331    0.0000 </r>
       <r>    8.4685    0.0000 </r>
       <r>    8.4689    0.0000 </r>
       <r>    8.6107    0.0000 </r>
       <r>    8.6113    0.0000 </r>
       <r>    8.6128    0.0000 </r>
       <r>    8.6169    0.0000 </r>
       <r>    8.6173    0.0000 </r>
       <r>    8.6173    0.0000 </r>
       <r>    8.6176    0.0000 </r>
       <r>    8.6191    0.0000 </r>
       <r>    8.6192    0.0000 </r>
       <r>    8.6737    0.0000 </r>
       <r>    8.6737    0.0000 </r>
       <r>    8.7512    0.0000 </r>
       <r>    8.7515    0.0000 </r>
       <r>    8.7778    0.0000 </r>
       <r>    8.7787    0.0000 </r>
       <r>    8.7995    0.0000 </r>
       <r>    8.7996    0.0000 </r>
       <r>    8.8004    0.0000 </r>
       <r>    8.8005    0.0000 </r>
       <r>    8.8133    0.0000 </r>
       <r>    8.8137    0.0000 </r>
       <r>    8.8139    0.0000 </r>
       <r>    8.8143    0.0000 </r>
       <r>    8.8283    0.0000 </r>
       <r>    8.8285    0.0000 </r>
       <r>    8.8735    0.0000 </r>
       <r>    8.9968    0.0000 </r>
       <r>    8.9999    0.0000 </r>
       <r>    9.1548    0.0000 </r>
      </set>
     </set>
    </set>
   </array>
  </eigenvalues>
  <separator name="orbital magnetization" >
   <v name="MAGDIPOLOUT">      0.00000000      0.00000000      0.00000000</v>
  </separator>
  <dos>
   <i name="efermi">      5.21450864 </i>
   <total>
    <array>
     <dimension dim="1">gridpoints</dimension>
     <dimension dim="2">spin</dimension>
     <field>energy</field>
     <field>total</field>
     <field>integrated</field>
     <set>
      <set comment="spin 1">
       <r>   -20.6630     0.0000     0.0000 </r>
       <r>   -20.5575     0.0000     0.0000 </r>
       <r>   -20.4520     0.0000     0.0000 </r>
       <r>   -20.3465     0.0000     0.0000 </r>
       <r>   -20.2410     0.0000     0.0000 </r>
       <r>   -20.1355     0.0000     0.0000 </r>
       <r>   -20.0300     0.0000     0.0000 </r>
       <r>   -19.9244     0.0000     0.0000 </r>
       <r>   -19.8189     0.0000     0.0000 </r>
       <r>   -19.7134     0.0000     0.0000 </r>
       <r>   -19.6079     0.0000     0.0000 </r>
       <r>   -19.5024     0.0000     0.0000 </r>
       <r>   -19.3969     0.0000     0.0000 </r>
       <r>   -19.2914     0.0000     0.0000 </r>
       <r>   -19.1858  5565.0769   587.1991 </r>
       <r>   -19.0803     0.0000   640.0000 </r>
       <r>   -18.9748     0.0000   640.0000 </r>
       <r>   -18.8693     0.0000   640.0000 </r>
       <r>   -18.7638     0.0000   640.0000 </r>
       <r>   -18.6583     0.0000   640.0000 </r>
       <r>   -18.5527     0.0000   640.0000 </r>
       <r>   -18.4472     0.0000   640.0000 </r>
       <r>   -18.3417     0.0000   640.0000 </r>
       <r>   -18.2362     0.0000   640.0000 </r>
       <r>   -18.1307     0.0000   640.0000 </r>
       <r>   -18.0252     0.0000   640.0000 </r>
       <r>   -17.9197     0.0000   640.0000 </r>
       <r>   -17.8141     0.0000   640.0000 </r>
       <r>   -17.7086     0.0000   640.0000 </r>
       <r>   -17.6031     0.0000   640.0000 </r>
       <r>   -17.4976     0.0000   640.0000 </r>
       <r>   -17.3921     0.0000   640.0000 </r>
       <r>   -17.2866     0.0000   640.0000 </r>
       <r>   -17.1811     0.0000   640.0000 </r>
       <r>   -17.0755     0.0000   640.0000 </r>
       <r>   -16.9700     0.0000   640.0000 </r>
       <r>   -16.8645     0.0000   640.0000 </r>
       <r>   -16.7590     0.0000   640.0000 </r>
       <r>   -16.6535     0.0000   640.0000 </r>
       <r>   -16.5480     0.0000   640.0000 </r>
       <r>   -16.4424     0.0000   640.0000 </r>
       <r>   -16.3369     0.0000   640.0000 </r>
       <r>   -16.2314     0.0000   640.0000 </r>
       <r>   -16.1259     0.0000   640.0000 </r>
       <r>   -16.0204     0.0000   640.0000 </r>
       <r>   -15.9149     0.0000   640.0000 </r>
       <r>   -15.8094     0.0000   640.0000 </r>
       <r>   -15.7038     0.0000   640.0000 </r>
       <r>   -15.5983     0.0000   640.0000 </r>
       <r>   -15.4928     0.0000   640.0000 </r>
       <r>   -15.3873     0.0000   640.0000 </r>
       <r>   -15.2818     0.0000   640.0000 </r>
       <r>   -15.1763     0.0000   640.0000 </r>
       <r>   -15.0708     0.0000   640.0000 </r>
       <r>   -14.9652     0.0000   640.0000 </r>
       <r>   -14.8597     0.0000   640.0000 </r>
       <r>   -14.7542     0.0000   640.0000 </r>
       <r>   -14.6487     0.0000   640.0000 </r>
       <r>   -14.5432     0.0000   640.0000 </r>
       <r>   -14.4377     0.0000   640.0000 </r>
       <r>   -14.3321     0.0000   640.0000 </r>
       <r>   -14.2266     0.0000   640.0000 </r>
       <r>   -14.1211     0.0000   640.0000 </r>
       <r>   -14.0156     0.0000   640.0000 </r>
       <r>   -13.9101     0.0000   640.0000 </r>
       <r>   -13.8046     0.0000   640.0000 </r>
       <r>   -13.6991     0.0000   640.0000 </r>
       <r>   -13.5935     0.0000   640.0000 </r>
       <r>   -13.4880     0.0000   640.0000 </r>
       <r>   -13.3825     0.0000   640.0000 </r>
       <r>   -13.2770     0.0000   640.0000 </r>
       <r>   -13.1715     0.0000   640.0000 </r>
       <r>   -13.0660     0.0000   640.0000 </r>
       <r>   -12.9605     0.0000   640.0000 </r>
       <r>   -12.8549     0.0000   640.0000 </r>
       <r>   -12.7494     0.0000   640.0000 </r>
       <r>   -12.6439     0.0000   640.0000 </r>
       <r>   -12.5384     0.0000   640.0000 </r>
       <r>   -12.4329     0.0000   640.0000 </r>
       <r>   -12.3274     0.0000   640.0000 </r>
       <r>   -12.2218     0.0000   640.0000 </r>
       <r>   -12.1163     0.0000   640.0000 </r>
       <r>   -12.0108     0.0000   640.0000 </r>
       <r>   -11.9053     0.0000   640.0000 </r>
       <r>   -11.7998     0.0000   640.0000 </r>
       <r>   -11.6943     0.0000   640.0000 </r>
       <r>   -11.5888     0.0000   640.0000 </r>
       <r>   -11.4832     0.0000   640.0000 </r>
       <r>   -11.3777     0.0000   640.0000 </r>
       <r>   -11.2722     0.0000   640.0000 </r>
       <r>   -11.1667     0.0000   640.0000 </r>
       <r>   -11.0612     0.0000   640.0000 </r>
       <r>   -10.9557     0.0000   640.0000 </r>
       <r>   -10.8502     0.0000   640.0000 </r>
       <r>   -10.7446     0.0000   640.0000 </r>
       <r>   -10.6391     0.0000   640.0000 </r>
       <r>   -10.5336     0.0000   640.0000 </r>
       <r>   -10.4281     0.0000   640.0000 </r>
       <r>   -10.3226     0.0000   640.0000 </r>
       <r>   -10.2171     0.0000   640.0000 </r>
       <r>   -10.1115     0.0000   640.0000 </r>
       <r>   -10.0060     0.0000   640.0000 </r>
       <r>    -9.9005     0.0000   640.0000 </r>
       <r>    -9.7950     0.0000   640.0000 </r>
       <r>    -9.6895     0.0000   640.0000 </r>
       <r>    -9.5840     0.0000   640.0000 </r>
       <r>    -9.4785     0.0000   640.0000 </r>
       <r>    -9.3729     0.0000   640.0000 </r>
       <r>    -9.2674     0.0000   640.0000 </r>
       <r>    -9.1619     0.0000   640.0000 </r>
       <r>    -9.0564     0.0000   640.0000 </r>
       <r>    -8.9509     0.0000   640.0000 </r>
       <r>    -8.8454     0.0000   640.0000 </r>
       <r>    -8.7399     0.0000   640.0000 </r>
       <r>    -8.6343     0.0000   640.0000 </r>
       <r>    -8.5288     0.0000   640.0000 </r>
       <r>    -8.4233     0.0000   640.0000 </r>
       <r>    -8.3178     0.0000   640.0000 </r>
       <r>    -8.2123     0.0000   640.0000 </r>
       <r>    -8.1068     0.0000   640.0000 </r>
       <r>    -8.0012     0.0000   640.0000 </r>
       <r>    -7.8957     0.0000   640.0000 </r>
       <r>    -7.7902     0.0000   640.0000 </r>
       <r>    -7.6847     0.0000   640.0000 </r>
       <r>    -7.5792     0.0000   640.0000 </r>
       <r>    -7.4737     0.0000   640.0000 </r>
       <r>    -7.3682     0.0000   640.0000 </r>
       <r>    -7.2626     0.0000   640.0000 </r>
       <r>    -7.1571     0.0000   640.0000 </r>
       <r>    -7.0516     0.7020   640.0741 </r>
       <r>    -6.9461     9.8116   641.1093 </r>
       <r>    -6.8406     8.0176   641.9571 </r>
       <r>    -6.7351    21.3707   644.2549 </r>
       <r>    -6.6296     1.2411   644.5013 </r>
       <r>    -6.5240    19.5128   646.8737 </r>
       <r>    -6.4185     2.0823   648.5901 </r>
       <r>    -6.3130    20.0793   652.2668 </r>
       <r>    -6.2075     0.2368   652.5435 </r>
       <r>    -6.1020    33.5927   656.9519 </r>
       <r>    -5.9965     4.2123   659.1852 </r>
       <r>    -5.8909    33.7094   662.7420 </r>
       <r>    -5.7854     5.5998   665.1094 </r>
       <r>    -5.6799    17.7124   666.9800 </r>
       <r>    -5.5744    31.4459   673.7625 </r>
       <r>    -5.4689    45.2447   678.7740 </r>
       <r>    -5.3634     1.3605   679.4769 </r>
       <r>    -5.2579    22.8545   683.5226 </r>
       <r>    -5.1523    27.0511   686.7802 </r>
       <r>    -5.0468    35.6947   693.9145 </r>
       <r>    -4.9413    22.6942   701.4316 </r>
       <r>    -4.8358    30.9011   706.4460 </r>
       <r>    -4.7303    29.9291   711.8248 </r>
       <r>    -4.6248    50.7027   718.9055 </r>
       <r>    -4.5193    33.7057   726.0009 </r>
       <r>    -4.4137    20.9353   731.3202 </r>
       <r>    -4.3082    23.5971   735.6010 </r>
       <r>    -4.2027    16.8486   738.8889 </r>
       <r>    -4.0972   109.4809   750.4408 </r>
       <r>    -3.9917     0.0000   750.4444 </r>
       <r>    -3.8862    31.3934   753.7569 </r>
       <r>    -3.7806    47.8959   759.0537 </r>
       <r>    -3.6751    50.5452   764.6666 </r>
       <r>    -3.5696     8.1972   765.5316 </r>
       <r>    -3.4641    20.7234   767.9644 </r>
       <r>    -3.3586     0.0000   768.0000 </r>
       <r>    -3.2531     0.0000   768.0000 </r>
       <r>    -3.1476     0.0000   768.0000 </r>
       <r>    -3.0420     0.0000   768.0000 </r>
       <r>    -2.9365     0.0000   768.0000 </r>
       <r>    -2.8310     0.0000   768.0000 </r>
       <r>    -2.7255     2.0307   768.2143 </r>
       <r>    -2.6200    14.7173   770.6640 </r>
       <r>    -2.5145     4.2121   771.3333 </r>
       <r>    -2.4090    16.9203   773.1187 </r>
       <r>    -2.3034    67.3951   782.0001 </r>
       <r>    -2.1979    16.9056   783.7839 </r>
       <r>    -2.0924     0.0003   785.5556 </r>
       <r>    -1.9869    91.5693   795.2175 </r>
       <r>    -1.8814    85.0269   806.3790 </r>
       <r>    -1.7759    21.0445   812.0724 </r>
       <r>    -1.6703    84.2428   822.7407 </r>
       <r>    -1.5648    17.3430   824.5707 </r>
       <r>    -1.4593    56.1614   832.2222 </r>
       <r>    -1.3538    33.4262   835.7492 </r>
       <r>    -1.2483    33.6931   839.3329 </r>
       <r>    -1.1428    50.5456   844.6667 </r>
       <r>    -1.0373     0.0000   844.6667 </r>
       <r>    -0.9317    50.2005   849.9636 </r>
       <r>    -0.8262    33.7017   853.5560 </r>
       <r>    -0.7207     9.8281   856.2222 </r>
       <r>    -0.6152     0.0008   856.2223 </r>
       <r>    -0.5097    16.9090   858.0065 </r>
       <r>    -0.4042     9.8272   862.5925 </r>
       <r>    -0.2987    32.9268   866.0669 </r>
       <r>    -0.1931     0.0000   866.1481 </r>
       <r>    -0.0876    16.8487   867.9259 </r>
       <r>     0.0179    33.6970   871.4815 </r>
       <r>     0.1234     0.0000   871.4815 </r>
       <r>     0.2289    16.8485   873.2593 </r>
       <r>     0.3344    16.8486   875.0370 </r>
       <r>     0.4400    16.8486   876.8148 </r>
       <r>     0.5455     0.0000   876.8148 </r>
       <r>     0.6510     0.0001   876.8148 </r>
       <r>     0.7565    50.4738   882.1406 </r>
       <r>     0.8620     8.5027   883.0453 </r>
       <r>     0.9675    39.7185   887.8205 </r>
       <r>     1.0730    54.7569   895.6295 </r>
       <r>     1.1786    67.3943   902.7407 </r>
       <r>     1.2841    84.2429   911.6296 </r>
       <r>     1.3896    32.5197   915.0609 </r>
       <r>     1.4951    55.7966   923.5170 </r>
       <r>     1.6006    90.1841   937.1454 </r>
       <r>     1.7061     4.7123   941.4602 </r>
       <r>     1.8116    15.9769   946.2043 </r>
       <r>     1.9172    67.4473   953.4130 </r>
       <r>     2.0227    86.0377   964.2636 </r>
       <r>     2.1282    34.0204   971.2193 </r>
       <r>     2.2337    95.7273   984.8414 </r>
       <r>     2.3392    53.6290   991.5105 </r>
       <r>     2.4447    78.4841  1000.3553 </r>
       <r>     2.5503   139.1134  1015.3452 </r>
       <r>     2.6558    35.5856  1020.8659 </r>
       <r>     2.7613    42.2659  1031.3486 </r>
       <r>     2.8668    61.6571  1039.6169 </r>
       <r>     2.9723   123.4669  1053.2498 </r>
       <r>     3.0778    50.5461  1058.8889 </r>
       <r>     3.1833   111.0628  1070.6077 </r>
       <r>     3.2889    30.7775  1076.3586 </r>
       <r>     3.3944    59.4439  1082.9389 </r>
       <r>     3.4999    72.3072  1096.7406 </r>
       <r>     3.6054    16.8486  1101.5556 </r>
       <r>     3.7109    67.1706  1108.6431 </r>
       <r>     3.8164    79.5381  1120.1704 </r>
       <r>     3.9219    19.5882  1122.8817 </r>
       <r>     4.0275    22.5875  1125.2722 </r>
       <r>     4.1330    66.8696  1135.7225 </r>
       <r>     4.2385     3.1029  1136.1052 </r>
       <r>     4.3440    43.7894  1141.2871 </r>
       <r>     4.4495    16.8456  1144.9626 </r>
       <r>     4.5550     8.4243  1145.8519 </r>
       <r>     4.6606    11.3796  1147.0526 </r>
       <r>     4.7661    16.8486  1149.7037 </r>
       <r>     4.8716     0.0000  1149.7037 </r>
       <r>     4.9771    18.2768  1151.6322 </r>
       <r>     5.0826     0.0001  1151.7778 </r>
       <r>     5.1881     2.1060  1152.0000 </r>
       <r>     5.2936     0.0000  1152.0000 </r>
       <r>     5.3992     0.0000  1152.0000 </r>
       <r>     5.5047     0.0000  1152.0000 </r>
       <r>     5.6102     0.0000  1152.0000 </r>
       <r>     5.7157     0.8366  1152.0883 </r>
       <r>     5.8212     2.1062  1152.6667 </r>
       <r>     5.9267     9.6246  1153.6822 </r>
       <r>     6.0322    21.3909  1157.4423 </r>
       <r>     6.1378    16.0418  1159.2482 </r>
       <r>     6.2433    21.0483  1161.4802 </r>
       <r>     6.3488    37.7546  1165.4652 </r>
       <r>     6.4543    26.6809  1168.7412 </r>
       <r>     6.5598    75.2084  1176.7504 </r>
       <r>     6.6653    95.6066  1187.7916 </r>
       <r>     6.7709    18.4338  1190.3154 </r>
       <r>     6.8764    93.6672  1202.8463 </r>
       <r>     6.9819    46.4125  1209.1194 </r>
       <r>     7.0874    50.5447  1220.2221 </r>
       <r>     7.1929    85.8714  1229.2830 </r>
       <r>     7.2984    82.8169  1243.6273 </r>
       <r>     7.4039    96.8247  1254.8831 </r>
       <r>     7.5095    23.1129  1257.3279 </r>
       <r>     7.6150    43.7395  1267.0596 </r>
       <r>     7.7205    34.7943  1272.5602 </r>
       <r>     7.8260    67.4010  1281.3340 </r>
       <r>     7.9315    42.2461  1288.7539 </r>
       <r>     8.0370    35.3020  1294.2434 </r>
       <r>     8.1425    71.3562  1303.3810 </r>
       <r>     8.2481    39.0759  1311.6786 </r>
       <r>     8.3536    54.8458  1321.3426 </r>
       <r>     8.4591   119.3518  1338.2230 </r>
       <r>     8.5646    32.8899  1343.3222 </r>
       <r>     8.6701   131.3308  1357.7092 </r>
       <r>     8.7756    67.7993  1367.3020 </r>
       <r>     8.8812    74.7665  1379.8890 </r>
       <r>     8.9867    75.0426  1389.6959 </r>
       <r>     9.0922    16.9278  1394.2306 </r>
       <r>     9.1977    42.1327  1402.2235 </r>
       <r>     9.3032    11.2321  1404.8889 </r>
       <r>     9.4087     1.7385  1405.0723 </r>
       <r>     9.5142    16.4037  1407.6568 </r>
       <r>     9.6198     2.8081  1408.0000 </r>
       <r>     9.7253     0.0000  1408.0000 </r>
       <r>     9.8308     0.0000  1408.0000 </r>
       <r>     9.9363     0.0000  1408.0000 </r>
       <r>    10.0418     0.0000  1408.0000 </r>
       <r>    10.1473     0.0000  1408.0000 </r>
       <r>    10.2528     0.0000  1408.0000 </r>
       <r>    10.3584     0.0000  1408.0000 </r>
       <r>    10.4639     0.0000  1408.0000 </r>
       <r>    10.5694     0.0000  1408.0000 </r>
       <r>    10.6749     0.0000  1408.0000 </r>
       <r>    10.7804     0.0000  1408.0000 </r>
       <r>    10.8859     0.0000  1408.0000 </r>
       <r>    10.9915     0.0000  1408.0000 </r>
      </set>
     </set>
    </array>
   </total>
  </dos>
 </calculation>
 <structure name="finalpos" >
  <crystal>
   <varray name="basis" >
    <v>      -0.00000000      11.19540607      11.19540607 </v>
    <v>      11.19540607      -0.00000000      11.19540607 </v>
    <v>      11.19540607      11.19540607       0.00000000 </v>
   </varray>
   <i name="volume">   2806.39984618 </i>
   <varray name="rec_basis" >
    <v>      -0.04466118       0.04466118       0.04466118 </v>
    <v>       0.04466118      -0.04466118       0.04466118 </v>
    <v>       0.04466118       0.04466118      -0.04466118 </v>
   </varray>
  </crystal>
  <varray name="positions" >
   <v>       0.00000000       0.00000000       0.00000000 </v>
   <v>       0.25000000       0.00000000       0.00000000 </v>
   <v>       0.50000000       0.00000000       0.00000000 </v>
   <v>       0.75000000       0.00000000       0.00000000 </v>
   <v>       0.00000000       0.25000000       0.00000000 </v>
   <v>       0.25000000       0.25000000       0.00000000 </v>
   <v>       0.50000000       0.25000000       0.00000000 </v>
   <v>       0.75000000       0.25000000       0.00000000 </v>
   <v>       0.00000000       0.50000000       0.00000000 </v>
   <v>       0.25000000       0.50000000       0.00000000 </v>
   <v>       0.50000000       0.50000000       0.00000000 </v>
   <v>       0.75000000       0.50000000       0.00000000 </v>
   <v>       0.00000000       0.75000000       0.00000000 </v>
   <v>       0.25000000       0.75000000       0.00000000 </v>
   <v>       0.50000000       0.75000000       0.00000000 </v>
   <v>       0.75000000       0.75000000       0.00000000 </v>
   <v>       0.00000000       0.00000000       0.25000000 </v>
   <v>       0.25000000       0.00000000       0.25000000 </v>
   <v>       0.50000000       0.00000000       0.25000000 </v>
   <v>       0.75000000       0.00000000       0.25000000 </v>
   <v>       0.00000000       0.25000000       0.25000000 </v>
   <v>       0.25000000       0.25000000       0.25000000 </v>
   <v>       0.50000000       0.25000000       0.25000000 </v>
   <v>       0.75000000       0.25000000       0.25000000 </v>
   <v>       0.00000000       0.50000000       0.25000000 </v>
   <v>       0.25000000       0.50000000       0.25000000 </v>
   <v>       0.50000000       0.50000000       0.25000000 </v>
   <v>       0.75000000       0.50000000       0.25000000 </v>
   <v>       0.00000000       0.75000000       0.25000000 </v>
   <v>       0.25000000       0.75000000       0.25000000 </v>
   <v>       0.50000000       0.75000000       0.25000000 </v>
   <v>       0.75000000       0.75000000       0.25000000 </v>
   <v>       0.00000000       0.00000000       0.50000000 </v>
   <v>       0.25000000       0.00000000       0.50000000 </v>
   <v>       0.50000000       0.00000000       0.50000000 </v>
   <v>       0.75000000       0.00000000       0.50000000 </v>
   <v>       0.00000000       0.25000000       0.50000000 </v>
   <v>       0.25000000       0.25000000       0.50000000 </v>
   <v>       0.50000000       0.25000000       0.50000000 </v>
   <v>       0.75000000       0.25000000       0.50000000 </v>
   <v>       0.00000000       0.50000000       0.50000000 </v>
   <v>       0.25000000       0.50000000       0.50000000 </v>
   <v>       0.50000000       0.50000000       0.50000000 </v>
   <v>       0.75000000       0.50000000       0.50000000 </v>
   <v>       0.00000000       0.75000000       0.50000000 </v>
   <v>       0.25000000       0.75000000       0.50000000 </v>
   <v>       0.50000000       0.75000000       0.50000000 </v>
   <v>       0.75000000       0.75000000       0.50000000 </v>
   <v>       0.00000000       0.00000000       0.75000000 </v>
   <v>       0.25000000       0.00000000       0.75000000 </v>
   <v>       0.50000000       0.00000000       0.75000000 </v>
   <v>       0.75000000       0.00000000       0.75000000 </v>
   <v>       0.00000000       0.25000000       0.75000000 </v>
   <v>       0.25000000       0.25000000       0.75000000 </v>
   <v>       0.50000000       0.25000000       0.75000000 </v>
   <v>       0.75000000       0.25000000       0.75000000 </v>
   <v>       0.00000000       0.50000000       0.75000000 </v>
   <v>       0.25000000       0.50000000       0.75000000 </v>
   <v>       0.50000000       0.50000000       0.75000000 </v>
   <v>       0.75000000       0.50000000       0.75000000 </v>
   <v>       0.00000000       0.75000000       0.75000000 </v>
   <v>       0.25000000       0.75000000       0.75000000 </v>
   <v>       0.50000000       0.75000000       0.75000000 </v>
   <v>       0.75000000       0.75000000       0.75000000 </v>
   <v>       0.18813160       0.18750000       0.18750000 </v>
   <v>       0.43750000       0.18750000       0.18750000 </v>
   <v>       0.68750000       0.18750000       0.18750000 </v>
   <v>       0.93750000       0.18750000       0.18750000 </v>
   <v>       0.18750000       0.43750000       0.18750000 </v>
   <v>       0.43750000       0.43750000       0.18750000 </v>
   <v>       0.68750000       0.43750000       0.18750000 </v>
   <v>       0.93750000       0.43750000       0.18750000 </v>
   <v>       0.18750000       0.68750000       0.18750000 </v>
   <v>       0.43750000       0.68750000       0.18750000 </v>
   <v>       0.68750000       0.68750000       0.18750000 </v>
   <v>       0.93750000       0.68750000       0.18750000 </v>
   <v>       0.18750000       0.93750000       0.18750000 </v>
   <v>       0.43750000       0.93750000       0.18750000 </v>
   <v>       0.68750000       0.93750000       0.18750000 </v>
   <v>       0.93750000       0.93750000       0.18750000 </v>
   <v>       0.18750000       0.18750000       0.43750000 </v>
   <v>       0.43750000       0.18750000       0.43750000 </v>
   <v>       0.68750000       0.18750000       0.43750000 </v>
   <v>       0.93750000       0.18750000       0.43750000 </v>
   <v>       0.18750000       0.43750000       0.43750000 </v>
   <v>       0.43750000       0.43750000       0.43750000 </v>
   <v>       0.68750000       0.43750000       0.43750000 </v>
   <v>       0.93750000       0.43750000       0.43750000 </v>
   <v>       0.18750000       0.68750000       0.43750000 </v>
   <v>       0.43750000       0.68750000       0.43750000 </v>
   <v>       0.68750000       0.68750000       0.43750000 </v>
   <v>       0.93750000       0.68750000       0.43750000 </v>
   <v>       0.18750000       0.93750000       0.43750000 </v>
   <v>       0.43750000       0.93750000       0.43750000 </v>
   <v>       0.68750000       0.93750000       0.43750000 </v>
   <v>       0.93750000       0.93750000       0.43750000 </v>
   <v>       0.18750000       0.18750000       0.68750000 </v>
   <v>       0.43750000       0.18750000       0.68750000 </v>
   <v>       0.68750000       0.18750000       0.68750000 </v>
   <v>       0.93750000       0.18750000       0.68750000 </v>
   <v>       0.18750000       0.43750000       0.68750000 </v>
   <v>       0.43750000       0.43750000       0.68750000 </v>
   <v>       0.68750000       0.43750000       0.68750000 </v>
   <v>       0.93750000       0.43750000       0.68750000 </v>
   <v>       0.18750000       0.68750000       0.68750000 </v>
   <v>       0.43750000       0.68750000       0.68750000 </v>
   <v>       0.68750000       0.68750000       0.68750000 </v>
   <v>       0.93750000       0.68750000       0.68750000 </v>
   <v>       0.18750000       0.93750000       0.68750000 </v>
   <v>       0.43750000       0.93750000       0.68750000 </v>
   <v>       0.68750000       0.93750000       0.68750000 </v>
   <v>       0.93750000       0.93750000       0.68750000 </v>
   <v>       0.18750000       0.18750000       0.93750000 </v>
   <v>       0.43750000       0.18750000       0.93750000 </v>
   <v>       0.68750000       0.18750000       0.93750000 </v>
   <v>       0.93750000       0.18750000       0.93750000 </v>
   <v>       0.18750000       0.43750000       0.93750000 </v>
   <v>       0.43750000       0.43750000       0.93750000 </v>
   <v>       0.68750000       0.43750000       0.93750000 </v>
   <v>       0.93750000       0.43750000       0.93750000 </v>
   <v>       0.18750000       0.68750000       0.93750000 </v>
   <v>       0.43750000       0.68750000       0.93750000 </v>
   <v>       0.68750000       0.68750000       0.93750000 </v>
   <v>       0.93750000       0.68750000       0.93750000 </v>
   <v>       0.18750000       0.93750000       0.93750000 </v>
   <v>       0.43750000       0.93750000       0.93750000 </v>
   <v>       0.68750000       0.93750000       0.93750000 </v>
   <v>       0.93750000       0.93750000       0.93750000 </v>
  </varray>
 </structure>
</modeling>
