generated by phonopy
   1.0
    -9.9224512296290968    9.9224512296290985    9.9224512296290985
     9.9224512296290968   -9.9224512296290985    9.9224512296290985
     9.9224512296291003    9.9224512296290985   -9.9224512296290968
Nb
 216
Direct
  0.0005818625416526  0.0000000000000000  0.0000000000000000
  0.1666666666666666  0.0000000000000000  0.0000000000000000
  0.3333333333333333  0.0000000000000000  0.0000000000000000
  0.4999999999999999  0.9999999999999999  0.0000000000000000
  0.6666666666666665  0.9999999999999999  0.0000000000000000
  0.8333333333333331  0.9999999999999999  0.0000000000000000
  0.0000000000000000  0.1666666666666666  0.0000000000000000
  0.1666666666666666  0.1666666666666666  0.0000000000000000
  0.3333333333333333  0.1666666666666666  0.0000000000000000
  0.4999999999999999  0.1666666666666666  0.0000000000000000
  0.6666666666666665  0.1666666666666665  0.0000000000000000
  0.8333333333333331  0.1666666666666665  0.0000000000000000
  0.0000000000000000  0.3333333333333333  0.0000000000000000
  0.1666666666666666  0.3333333333333333  0.0000000000000000
  0.3333333333333333  0.3333333333333333  0.0000000000000000
  0.4999999999999999  0.3333333333333332  0.0000000000000000
  0.6666666666666665  0.3333333333333332  0.0000000000000000
  0.8333333333333331  0.3333333333333332  0.0000000000000000
  0.9999999999999999  0.4999999999999999  0.0000000000000000
  0.1666666666666666  0.4999999999999999  0.0000000000000000
  0.3333333333333333  0.5000000000000000  0.0000000000000000
  0.4999999999999999  0.4999999999999999  0.0000000000000000
  0.6666666666666665  0.4999999999999998  0.0000000000000000
  0.8333333333333331  0.4999999999999999  0.0000000000000000
  0.9999999999999999  0.6666666666666665  0.0000000000000000
  0.1666666666666665  0.6666666666666665  0.0000000000000000
  0.3333333333333332  0.6666666666666665  0.0000000000000001
  0.4999999999999998  0.6666666666666665  0.0000000000000000
  0.6666666666666665  0.6666666666666665  0.0000000000000000
  0.8333333333333331  0.6666666666666665  0.0000000000000000
  0.9999999999999999  0.8333333333333331  0.0000000000000000
  0.1666666666666666  0.8333333333333331  0.0000000000000000
  0.3333333333333332  0.8333333333333331  0.0000000000000001
  0.4999999999999999  0.8333333333333331  0.0000000000000000
  0.6666666666666665  0.8333333333333331  0.0000000000000000
  0.8333333333333330  0.8333333333333330  0.0000000000000000
  0.0000000000000000  0.0000000000000000  0.1666666666666667
  0.1666666666666667  0.0000000000000000  0.1666666666666667
  0.3333333333333333  0.0000000000000000  0.1666666666666667
  0.4999999999999999  0.9999999999999999  0.1666666666666666
  0.6666666666666665  0.9999999999999999  0.1666666666666666
  0.8333333333333331  0.9999999999999999  0.1666666666666666
  0.0000000000000000  0.1666666666666666  0.1666666666666667
  0.1666666666666666  0.1666666666666666  0.1666666666666667
  0.3333333333333333  0.1666666666666666  0.1666666666666667
  0.4999999999999999  0.1666666666666665  0.1666666666666666
  0.6666666666666665  0.1666666666666665  0.1666666666666667
  0.8333333333333331  0.1666666666666665  0.1666666666666666
  0.0000000000000000  0.3333333333333333  0.1666666666666667
  0.1666666666666666  0.3333333333333333  0.1666666666666667
  0.3333333333333333  0.3333333333333332  0.1666666666666667
  0.4999999999999998  0.3333333333333331  0.1666666666666667
  0.6666666666666666  0.3333333333333333  0.1666666666666667
  0.8333333333333331  0.3333333333333332  0.1666666666666666
  0.9999999999999999  0.4999999999999999  0.1666666666666667
  0.1666666666666666  0.4999999999999999  0.1666666666666667
  0.3333333333333333  0.4999999999999999  0.1666666666666667
  0.4999999999999999  0.4999999999999999  0.1666666666666667
  0.6666666666666665  0.4999999999999999  0.1666666666666667
  0.8333333333333331  0.4999999999999999  0.1666666666666667
  0.9999999999999999  0.6666666666666665  0.1666666666666667
  0.1666666666666665  0.6666666666666665  0.1666666666666667
  0.3333333333333333  0.6666666666666666  0.1666666666666667
  0.4999999999999999  0.6666666666666665  0.1666666666666667
  0.6666666666666665  0.6666666666666665  0.1666666666666667
  0.8333333333333331  0.6666666666666665  0.1666666666666667
  0.9999999999999999  0.8333333333333331  0.1666666666666667
  0.1666666666666666  0.8333333333333333  0.1666666666666667
  0.3333333333333332  0.8333333333333331  0.1666666666666667
  0.4999999999999999  0.8333333333333331  0.1666666666666667
  0.6666666666666665  0.8333333333333331  0.1666666666666667
  0.8333333333333330  0.8333333333333330  0.1666666666666667
  0.0000000000000000  0.0000000000000000  0.3333333333333333
  0.1666666666666666  0.0000000000000000  0.3333333333333333
  0.3333333333333333  0.0000000000000000  0.3333333333333333
  0.4999999999999999  0.9999999999999999  0.3333333333333333
  0.6666666666666666  0.9999999999999999  0.3333333333333333
  0.8333333333333331  0.9999999999999999  0.3333333333333333
  0.0000000000000000  0.1666666666666666  0.3333333333333333
  0.1666666666666666  0.1666666666666666  0.3333333333333333
  0.3333333333333333  0.1666666666666666  0.3333333333333333
  0.4999999999999999  0.1666666666666666  0.3333333333333333
  0.6666666666666665  0.1666666666666665  0.3333333333333333
  0.8333333333333330  0.1666666666666665  0.3333333333333333
  0.0000000000000000  0.3333333333333333  0.3333333333333333
  0.1666666666666666  0.3333333333333333  0.3333333333333333
  0.3333333333333333  0.3333333333333333  0.3333333333333333
  0.4999999999999998  0.3333333333333331  0.3333333333333333
  0.6666666666666665  0.3333333333333332  0.3333333333333333
  0.8333333333333331  0.3333333333333331  0.3333333333333333
  0.9999999999999999  0.4999999999999999  0.3333333333333333
  0.1666666666666666  0.4999999999999999  0.3333333333333334
  0.3333333333333333  0.4999999999999999  0.3333333333333333
  0.4999999999999999  0.4999999999999999  0.3333333333333333
  0.6666666666666664  0.4999999999999998  0.3333333333333333
  0.8333333333333330  0.4999999999999998  0.3333333333333333
  0.9999999999999999  0.6666666666666665  0.3333333333333333
  0.1666666666666665  0.6666666666666665  0.3333333333333333
  0.3333333333333333  0.6666666666666665  0.3333333333333334
  0.4999999999999998  0.6666666666666664  0.3333333333333333
  0.6666666666666665  0.6666666666666664  0.3333333333333333
  0.8333333333333330  0.6666666666666664  0.3333333333333333
  0.9999999999999999  0.8333333333333330  0.3333333333333334
  0.1666666666666666  0.8333333333333331  0.3333333333333334
  0.3333333333333331  0.8333333333333331  0.3333333333333334
  0.4999999999999998  0.8333333333333330  0.3333333333333334
  0.6666666666666664  0.8333333333333330  0.3333333333333333
  0.8333333333333330  0.8333333333333330  0.3333333333333333
  0.0000000000000000  0.0000000000000000  0.5000000000000000
  0.1666666666666666  0.0000000000000000  0.5000000000000000
  0.3333333333333333  0.0000000000000000  0.5000000000000000
  0.4999999999999999  0.9999999999999999  0.5000000000000000
  0.6666666666666665  0.9999999999999999  0.4999999999999999
  0.8333333333333331  0.9999999999999999  0.5000000000000000
  0.0000000000000000  0.1666666666666666  0.5000000000000000
  0.1666666666666666  0.1666666666666666  0.5000000000000000
  0.3333333333333333  0.1666666666666666  0.5000000000000000
  0.4999999999999999  0.1666666666666666  0.5000000000000000
  0.6666666666666665  0.1666666666666665  0.5000000000000000
  0.8333333333333330  0.1666666666666665  0.5000000000000000
  0.0000000000000000  0.3333333333333333  0.5000000000000000
  0.1666666666666666  0.3333333333333333  0.5000000000000000
  0.3333333333333333  0.3333333333333333  0.5000000000000000
  0.4999999999999998  0.3333333333333331  0.4999999999999999
  0.6666666666666665  0.3333333333333332  0.5000000000000000
  0.8333333333333330  0.3333333333333331  0.4999999999999999
  0.9999999999999999  0.4999999999999999  0.5000000000000000
  0.1666666666666666  0.4999999999999999  0.5000000000000000
  0.3333333333333333  0.5000000000000000  0.5000000000000000
  0.4999999999999999  0.4999999999999999  0.5000000000000000
  0.6666666666666664  0.4999999999999998  0.5000000000000000
  0.8333333333333331  0.4999999999999999  0.5000000000000000
  0.9999999999999999  0.6666666666666665  0.5000000000000001
  0.1666666666666665  0.6666666666666665  0.5000000000000000
  0.3333333333333333  0.6666666666666665  0.5000000000000001
  0.4999999999999998  0.6666666666666664  0.5000000000000000
  0.6666666666666665  0.6666666666666665  0.5000000000000000
  0.8333333333333330  0.6666666666666664  0.5000000000000000
  0.9999999999999999  0.8333333333333331  0.5000000000000000
  0.1666666666666666  0.8333333333333331  0.5000000000000001
  0.3333333333333332  0.8333333333333331  0.5000000000000000
  0.4999999999999999  0.8333333333333330  0.5000000000000000
  0.6666666666666665  0.8333333333333330  0.5000000000000000
  0.8333333333333330  0.8333333333333331  0.5000000000000000
  0.0000000000000000  0.0000000000000000  0.6666666666666666
  0.1666666666666666  0.0000000000000000  0.6666666666666666
  0.3333333333333333  0.9999999999999999  0.6666666666666666
  0.4999999999999999  0.9999999999999999  0.6666666666666666
  0.6666666666666666  0.9999999999999999  0.6666666666666666
  0.8333333333333331  0.9999999999999999  0.6666666666666666
  0.0000000000000000  0.1666666666666667  0.6666666666666666
  0.1666666666666666  0.1666666666666666  0.6666666666666666
  0.3333333333333332  0.1666666666666666  0.6666666666666666
  0.4999999999999999  0.1666666666666665  0.6666666666666666
  0.6666666666666665  0.1666666666666665  0.6666666666666666
  0.8333333333333330  0.1666666666666665  0.6666666666666666
  0.9999999999999999  0.3333333333333333  0.6666666666666666
  0.1666666666666666  0.3333333333333333  0.6666666666666666
  0.3333333333333333  0.3333333333333332  0.6666666666666666
  0.4999999999999998  0.3333333333333331  0.6666666666666666
  0.6666666666666665  0.3333333333333332  0.6666666666666666
  0.8333333333333331  0.3333333333333332  0.6666666666666666
  0.9999999999999999  0.4999999999999999  0.6666666666666666
  0.1666666666666666  0.4999999999999999  0.6666666666666666
  0.3333333333333333  0.4999999999999999  0.6666666666666666
  0.4999999999999999  0.4999999999999998  0.6666666666666666
  0.6666666666666664  0.4999999999999998  0.6666666666666666
  0.8333333333333331  0.4999999999999999  0.6666666666666666
  0.9999999999999999  0.6666666666666665  0.6666666666666666
  0.1666666666666665  0.6666666666666665  0.6666666666666666
  0.3333333333333332  0.6666666666666665  0.6666666666666666
  0.4999999999999998  0.6666666666666665  0.6666666666666666
  0.6666666666666665  0.6666666666666665  0.6666666666666666
  0.8333333333333330  0.6666666666666665  0.6666666666666666
  0.9999999999999999  0.8333333333333330  0.6666666666666666
  0.1666666666666666  0.8333333333333331  0.6666666666666666
  0.3333333333333332  0.8333333333333331  0.6666666666666667
  0.4999999999999999  0.8333333333333331  0.6666666666666666
  0.6666666666666665  0.8333333333333331  0.6666666666666666
  0.8333333333333330  0.8333333333333330  0.6666666666666666
  0.0000000000000000  0.0000000000000000  0.8333333333333333
  0.1666666666666667  0.9999999999999999  0.8333333333333333
  0.3333333333333333  0.0000000000000000  0.8333333333333333
  0.5000000000000000  0.9999999999999999  0.8333333333333333
  0.6666666666666666  0.9999999999999999  0.8333333333333333
  0.8333333333333331  0.9999999999999999  0.8333333333333333
  0.9999999999999999  0.1666666666666665  0.8333333333333333
  0.1666666666666666  0.1666666666666666  0.8333333333333333
  0.3333333333333333  0.1666666666666666  0.8333333333333333
  0.4999999999999999  0.1666666666666665  0.8333333333333333
  0.6666666666666666  0.1666666666666665  0.8333333333333333
  0.8333333333333331  0.1666666666666665  0.8333333333333333
  0.9999999999999999  0.3333333333333332  0.8333333333333333
  0.1666666666666666  0.3333333333333332  0.8333333333333333
  0.3333333333333333  0.3333333333333333  0.8333333333333333
  0.4999999999999999  0.3333333333333331  0.8333333333333333
  0.6666666666666666  0.3333333333333333  0.8333333333333333
  0.8333333333333331  0.3333333333333331  0.8333333333333333
  0.9999999999999999  0.4999999999999999  0.8333333333333334
  0.1666666666666666  0.4999999999999999  0.8333333333333333
  0.3333333333333333  0.4999999999999999  0.8333333333333333
  0.4999999999999999  0.4999999999999999  0.8333333333333333
  0.6666666666666665  0.4999999999999998  0.8333333333333333
  0.8333333333333331  0.4999999999999998  0.8333333333333334
  0.9999999999999999  0.6666666666666666  0.8333333333333333
  0.1666666666666665  0.6666666666666665  0.8333333333333334
  0.3333333333333333  0.6666666666666666  0.8333333333333333
  0.4999999999999998  0.6666666666666664  0.8333333333333333
  0.6666666666666665  0.6666666666666665  0.8333333333333333
  0.8333333333333330  0.6666666666666664  0.8333333333333333
  0.9999999999999999  0.8333333333333331  0.8333333333333333
  0.1666666666666666  0.8333333333333333  0.8333333333333334
  0.3333333333333332  0.8333333333333331  0.8333333333333334
  0.4999999999999998  0.8333333333333330  0.8333333333333333
  0.6666666666666664  0.8333333333333330  0.8333333333333333
  0.8333333333333330  0.8333333333333330  0.8333333333333333
