
     Program PWSCF v.7.5 starts on 10Jun2026 at 21:46:52 

     This program is part of the open-source Quantum ESPRESSO suite
     for quantum simulation of materials; please cite
         "P. Giannozzi et al., J. Phys.:Condens. Matter 21 395502 (2009);
         "P. Giannozzi et al., J. Phys.:Condens. Matter 29 465901 (2017);
         "P. Giannozzi et al., J. Chem. Phys. 152 154105 (2020);
          URL http://www.quantum-espresso.org", 
     in publications or presentations arising from this work. More details at
     http://www.quantum-espresso.org/quote

     Parallel version (MPI), running on   512 processors

     MPI processes distributed on     4 nodes
     480150 MiB available memory on the printing compute node when the environment starts
 
     Reading input from scf.in

     Current dimensions of program PWSCF are:
     Max number of different atomic species (ntypx) = 10
     Max number of k-points (npk) =  40000
     Max angular momentum in pseudopotentials (lmaxx) =  4
     Message from routine setup:
     using ibrav=0 with symmetry is DISCOURAGED, use correct ibrav instead
 
     K-points division:     npool     =      32
     R & G space division:  proc/nbgrp/npool/nimage =      16
     Subspace diagonalization in iterative solution of the eigenvalue problem:
     a serial algorithm will be used

 
     Parallelization info
     --------------------
     sticks:   dense  smooth     PW     G-vecs:    dense   smooth      PW
     Min          55      55     19                 1030     1030     210
     Max          56      56     20                 1031     1031     211
     Sum         887     887    307                16487    16487    3367
 
     Using Slab Decomposition
 


     bravais-lattice index     =            0
     lattice parameter (alat)  =       5.4201  a.u.
     unit-cell volume          =     122.5725 (a.u.)^3
     number of atoms/cell      =            1
     number of atomic types    =            1
     number of electrons       =        13.00
     number of Kohn-Sham states=           11
     kinetic-energy cutoff     =     100.0000  Ry
     charge density cutoff     =     400.0000  Ry
     scf convergence threshold =      1.0E-11
     mixing beta               =       0.7000
     number of iterations used =            8  plain     mixing
     Exchange-correlation= PBE
                           (   1   4   3   4   0   0   0)

     celldm(1)=   5.420072  celldm(2)=   0.000000  celldm(3)=   0.000000
     celldm(4)=   0.000000  celldm(5)=   0.000000  celldm(6)=   0.000000

     crystal axes: (cart. coord. in units of alat)
               a(1) = (  -0.577350   0.577350   0.577350 )  
               a(2) = (   0.577350  -0.577350   0.577350 )  
               a(3) = (   0.577350   0.577350  -0.577350 )  

     reciprocal axes: (cart. coord. in units 2 pi/alat)
               b(1) = (  0.000000  0.866025  0.866025 )  
               b(2) = (  0.866025  0.000000  0.866025 )  
               b(3) = (  0.866025  0.866025  0.000000 )  


     PseudoPot. # 1 for Nb read from file:
     /pscratch/sd/m/mhussien/NbN/2025/All_data/bulk-press-epi/pristine/June_06/pseudo/Nb_pbe.upf
     MD5 check sum: 712dd6877a67fb2d3f70e8edbadf3134
     Pseudo is Norm-conserving + core correction, Zval = 13.0
     Generated using ONCVPSP code by D. R. Hamann
     Using radial grid of 1680 points,  6 beta functions with: 
                l(1) =   0
                l(2) =   0
                l(3) =   1
                l(4) =   1
                l(5) =   2
                l(6) =   2

     atomic species   valence    mass     pseudopotential
     Nb               13.00    92.91000     Nb( 1.00)

     48 Sym. Ops., with inversion, found



   Cartesian axes

     site n.     atom                  positions (alat units)
         1        Nb     tau(   1) = (   0.0000000   0.0000000   0.0000000  )

     number of k points=   195  Marzari-Vanderbilt smearing, width (Ry)=  0.0050

     Number of k-points >= 100: set verbosity='high' to print them.

     Dense  grid:    16487 G-vectors     FFT dimensions: (  36,  36,  36)

     Estimated max dynamical RAM per process >       2.62 MB

     Estimated total dynamical RAM >       1.19 GB

     Initial potential from superposition of free atoms

     starting charge      12.9977, renormalised to      13.0000
     Starting wfcs are   10 randomized atomic wfcs +    1 random wfcs

     total cpu time spent up to now is        0.8 secs

     Self-consistent Calculation

     iteration #  1     ecut=   100.00 Ry     beta= 0.70
     Davidson diagonalization with overlap
     ethr =  1.00E-02,  avg # of iterations =  3.6

     Threshold (ethr) on eigenvalues was too large:
     Diagonalizing with lowered threshold

     Davidson diagonalization with overlap
     ethr =  6.57E-04,  avg # of iterations =  1.2

     total cpu time spent up to now is        1.2 secs

     total energy              =    -124.55105096 Ry
     estimated scf accuracy    <       0.08941576 Ry

     iteration #  2     ecut=   100.00 Ry     beta= 0.70
     Davidson diagonalization with overlap
     ethr =  6.88E-04,  avg # of iterations =  2.0

     total cpu time spent up to now is        1.2 secs

     total energy              =    -124.57040317 Ry
     estimated scf accuracy    <       0.00533551 Ry

     iteration #  3     ecut=   100.00 Ry     beta= 0.70
     Davidson diagonalization with overlap
     ethr =  4.10E-05,  avg # of iterations =  2.7

     total cpu time spent up to now is        1.3 secs

     total energy              =    -124.57139109 Ry
     estimated scf accuracy    <       0.00015413 Ry

     iteration #  4     ecut=   100.00 Ry     beta= 0.70
     Davidson diagonalization with overlap
     ethr =  1.19E-06,  avg # of iterations =  3.0

     total cpu time spent up to now is        1.4 secs

     total energy              =    -124.57139794 Ry
     estimated scf accuracy    <       0.00000231 Ry

     iteration #  5     ecut=   100.00 Ry     beta= 0.70
     Davidson diagonalization with overlap
     ethr =  1.78E-08,  avg # of iterations =  2.0

     total cpu time spent up to now is        1.4 secs

     total energy              =    -124.57139865 Ry
     estimated scf accuracy    <       0.00000021 Ry

     iteration #  6     ecut=   100.00 Ry     beta= 0.70
     Davidson diagonalization with overlap
     ethr =  1.65E-09,  avg # of iterations =  2.0

     total cpu time spent up to now is        1.5 secs

     total energy              =    -124.57139870 Ry
     estimated scf accuracy    <          3.8E-10 Ry

     iteration #  7     ecut=   100.00 Ry     beta= 0.70
     Davidson diagonalization with overlap
     ethr =  2.95E-12,  avg # of iterations =  3.1

     total cpu time spent up to now is        1.5 secs

     End of self-consistent calculation

     Number of k-points >= 100: set verbosity='high' to print the bands.

     the Fermi energy is    17.7881 ev

!    total energy              =    -124.57139870 Ry
     estimated scf accuracy    <          6.4E-12 Ry
     smearing contrib. (-TS)   =       0.00002241 Ry
     internal energy E=F+TS    =    -124.57142111 Ry

     The total energy is F=E-TS. E is the sum of the following terms:
     one-electron contribution =     -15.17650439 Ry
     hartree contribution      =      15.00380504 Ry
     xc contribution           =     -26.12843590 Ry
     ewald contribution        =     -98.27028586 Ry

     convergence has been achieved in   7 iterations

     Writing all to output data dir ./Nb.save/ :
     XML data file, charge density, pseudopotentials, collected wavefunctions
 
     init_run     :      0.07s CPU      0.37s WALL (       1 calls)
     electrons    :      0.52s CPU      0.71s WALL (       1 calls)

     Called by init_run:
     wfcinit      :      0.03s CPU      0.12s WALL (       1 calls)
     potinit      :      0.02s CPU      0.03s WALL (       1 calls)
     hinit0       :      0.01s CPU      0.18s WALL (       1 calls)

     Called by electrons:
     c_bands      :      0.37s CPU      0.40s WALL (       8 calls)
     sum_band     :      0.07s CPU      0.08s WALL (       8 calls)
     v_of_rho     :      0.01s CPU      0.03s WALL (       8 calls)
     mix_rho      :      0.00s CPU      0.00s WALL (       8 calls)

     Called by c_bands:
     init_us_2    :      0.00s CPU      0.00s WALL (     119 calls)
     cegterg      :      0.29s CPU      0.31s WALL (      56 calls)

     Called by *egterg:
     cdiaghg      :      0.02s CPU      0.08s WALL (     197 calls)
     h_psi        :      0.26s CPU      0.30s WALL (     211 calls)
     g_psi        :      0.00s CPU      0.00s WALL (     148 calls)

     Called by h_psi:
     h_psi:calbec :      0.02s CPU      0.03s WALL (     211 calls)
     vloc_psi     :      0.23s CPU      0.26s WALL (     211 calls)
                                        0.00s GPU  (     211 calls)
     add_vuspsi   :      0.00s CPU      0.00s WALL (     211 calls)

     General routines
     calbec       :      0.02s CPU      0.03s WALL (     211 calls)
     fft          :      0.01s CPU      0.17s WALL (      81 calls)
     ffts         :      0.00s CPU      0.00s WALL (       8 calls)
     fftw         :      0.26s CPU      0.29s WALL (    3758 calls)
 
     Parallel routines
 
     PWSCF        :      0.82s CPU      1.67s WALL

 
   This run was terminated on:  21:46:53  10Jun2026            

=------------------------------------------------------------------------------=
   JOB DONE.
=------------------------------------------------------------------------------=
