generated by phonopy
   1.0
     0.0000000000000015   10.1090935143202802   10.1090935143202802
    10.1090935143202802    0.0000000000000000   10.1090935143202802
    10.1090935143202820   10.1090935143202802    0.0000000000000010
Al
 125
Direct
  0.0006994759522057  0.2000000000000000  0.2000000000000000
  0.2000000000000000  0.2000000000000000  0.2000000000000001
  0.4000000000000000  0.2000000000000000  0.2000000000000000
  0.6000000000000001  0.1999999999999999  0.2000000000000001
  0.8000000000000000  0.1999999999999999  0.2000000000000001
  0.0000000000000001  0.4000000000000000  0.2000000000000000
  0.2000000000000000  0.4000000000000000  0.2000000000000000
  0.4000000000000000  0.4000000000000000  0.2000000000000001
  0.6000000000000002  0.4000000000000000  0.2000000000000001
  0.8000000000000000  0.4000000000000000  0.2000000000000001
  0.0000000000000000  0.6000000000000002  0.2000000000000000
  0.2000000000000001  0.6000000000000001  0.2000000000000000
  0.4000000000000000  0.6000000000000000  0.2000000000000001
  0.6000000000000002  0.6000000000000001  0.2000000000000001
  0.8000000000000000  0.6000000000000000  0.2000000000000001
  0.0000000000000001  0.8000000000000000  0.2000000000000000
  0.2000000000000001  0.8000000000000000  0.2000000000000000
  0.4000000000000001  0.7999999999999999  0.2000000000000001
  0.6000000000000002  0.7999999999999999  0.2000000000000001
  0.8000000000000000  0.7999999999999998  0.2000000000000002
  0.0000000000000000  0.0000000000000000  0.2000000000000000
  0.2000000000000000  0.0000000000000000  0.2000000000000000
  0.4000000000000000  0.0000000000000000  0.2000000000000001
  0.6000000000000001  0.9999999999999999  0.2000000000000001
  0.7999999999999999  0.9999999999999999  0.2000000000000002
  0.0000000000000000  0.2000000000000000  0.4000000000000000
  0.2000000000000000  0.2000000000000000  0.4000000000000000
  0.4000000000000000  0.2000000000000000  0.4000000000000001
  0.6000000000000002  0.1999999999999999  0.4000000000000001
  0.8000000000000000  0.1999999999999999  0.4000000000000001
  0.0000000000000000  0.4000000000000001  0.4000000000000000
  0.2000000000000000  0.4000000000000000  0.4000000000000001
  0.4000000000000000  0.4000000000000000  0.4000000000000001
  0.6000000000000002  0.3999999999999999  0.4000000000000001
  0.8000000000000000  0.3999999999999999  0.4000000000000001
  0.0000000000000001  0.6000000000000001  0.4000000000000000
  0.2000000000000001  0.6000000000000001  0.4000000000000000
  0.4000000000000000  0.6000000000000000  0.4000000000000001
  0.6000000000000001  0.6000000000000000  0.4000000000000002
  0.8000000000000000  0.6000000000000000  0.4000000000000002
  0.0000000000000002  0.8000000000000000  0.3999999999999999
  0.2000000000000001  0.8000000000000000  0.4000000000000001
  0.4000000000000001  0.8000000000000000  0.4000000000000001
  0.6000000000000002  0.7999999999999999  0.4000000000000002
  0.8000000000000000  0.7999999999999999  0.4000000000000001
  0.0000000000000000  0.0000000000000000  0.4000000000000000
  0.2000000000000000  0.0000000000000000  0.4000000000000000
  0.4000000000000000  0.0000000000000000  0.4000000000000000
  0.6000000000000001  0.9999999999999999  0.4000000000000001
  0.7999999999999999  0.9999999999999999  0.4000000000000001
  0.0000000000000001  0.2000000000000000  0.6000000000000001
  0.2000000000000000  0.2000000000000000  0.6000000000000002
  0.4000000000000000  0.2000000000000000  0.6000000000000000
  0.6000000000000001  0.1999999999999999  0.6000000000000002
  0.8000000000000000  0.1999999999999999  0.6000000000000002
  0.0000000000000001  0.4000000000000000  0.6000000000000001
  0.2000000000000000  0.4000000000000000  0.6000000000000001
  0.3999999999999999  0.4000000000000000  0.6000000000000001
  0.6000000000000001  0.4000000000000000  0.6000000000000003
  0.7999999999999999  0.3999999999999999  0.6000000000000003
  0.0000000000000001  0.6000000000000002  0.6000000000000001
  0.2000000000000001  0.6000000000000002  0.6000000000000002
  0.4000000000000000  0.6000000000000001  0.6000000000000002
  0.6000000000000002  0.6000000000000001  0.6000000000000002
  0.8000000000000000  0.6000000000000000  0.6000000000000001
  0.0000000000000001  0.8000000000000000  0.6000000000000001
  0.2000000000000001  0.8000000000000000  0.6000000000000002
  0.4000000000000000  0.8000000000000000  0.6000000000000001
  0.6000000000000001  0.7999999999999999  0.6000000000000003
  0.8000000000000000  0.7999999999999999  0.6000000000000003
  0.0000000000000000  0.0000000000000000  0.6000000000000001
  0.2000000000000000  0.9999999999999999  0.6000000000000001
  0.4000000000000000  0.0000000000000000  0.6000000000000001
  0.6000000000000001  0.9999999999999999  0.6000000000000002
  0.7999999999999999  0.9999999999999999  0.6000000000000003
  0.0000000000000000  0.2000000000000000  0.8000000000000000
  0.2000000000000000  0.2000000000000000  0.8000000000000000
  0.4000000000000000  0.2000000000000000  0.8000000000000000
  0.6000000000000000  0.2000000000000000  0.8000000000000002
  0.7999999999999999  0.2000000000000000  0.8000000000000002
  0.0000000000000000  0.4000000000000001  0.8000000000000000
  0.2000000000000001  0.4000000000000001  0.7999999999999998
  0.4000000000000001  0.3999999999999999  0.8000000000000000
  0.6000000000000002  0.4000000000000000  0.8000000000000000
  0.7999999999999999  0.4000000000000000  0.8000000000000003
  0.0000000000000001  0.6000000000000001  0.7999999999999998
  0.2000000000000001  0.6000000000000001  0.7999999999999999
  0.4000000000000001  0.5999999999999999  0.8000000000000002
  0.6000000000000001  0.6000000000000001  0.8000000000000002
  0.8000000000000000  0.6000000000000000  0.8000000000000000
  0.0000000000000000  0.8000000000000002  0.8000000000000000
  0.2000000000000000  0.8000000000000000  0.8000000000000002
  0.4000000000000000  0.8000000000000000  0.8000000000000003
  0.6000000000000001  0.7999999999999999  0.8000000000000000
  0.7999999999999999  0.7999999999999999  0.8000000000000003
  0.0000000000000000  0.0000000000000000  0.8000000000000000
  0.2000000000000000  0.0000000000000000  0.8000000000000000
  0.4000000000000000  0.0000000000000000  0.8000000000000000
  0.6000000000000001  0.0000000000000000  0.8000000000000000
  0.7999999999999999  0.9999999999999999  0.8000000000000000
  0.0000000000000000  0.2000000000000000  0.0000000000000000
  0.2000000000000000  0.2000000000000000  0.0000000000000001
  0.4000000000000000  0.2000000000000000  0.0000000000000000
  0.6000000000000002  0.1999999999999999  0.0000000000000001
  0.8000000000000000  0.2000000000000000  0.0000000000000001
  0.0000000000000001  0.4000000000000000  0.0000000000000000
  0.2000000000000000  0.4000000000000000  0.0000000000000000
  0.4000000000000000  0.4000000000000000  0.0000000000000001
  0.6000000000000002  0.4000000000000000  0.0000000000000001
  0.8000000000000000  0.4000000000000000  0.0000000000000001
  0.0000000000000001  0.6000000000000002  0.0000000000000000
  0.2000000000000001  0.6000000000000001  0.0000000000000000
  0.4000000000000001  0.6000000000000000  0.0000000000000001
  0.6000000000000002  0.6000000000000001  0.0000000000000001
  0.8000000000000000  0.6000000000000000  0.0000000000000001
  0.0000000000000001  0.8000000000000000  0.0000000000000000
  0.2000000000000000  0.8000000000000000  0.0000000000000001
  0.4000000000000000  0.8000000000000000  0.0000000000000001
  0.6000000000000001  0.7999999999999999  0.0000000000000001
  0.8000000000000000  0.7999999999999999  0.0000000000000002
  0.0000000000000000  0.0000000000000000  0.0000000000000000
  0.2000000000000000  0.0000000000000000  0.0000000000000000
  0.4000000000000000  0.0000000000000000  0.0000000000000001
  0.6000000000000001  0.0000000000000000  0.0000000000000001
  0.7999999999999999  0.9999999999999999  0.0000000000000001
