generated by phonopy
   1.0
    -0.0000000000000008   10.9374800149544686   10.9374800149544686
    10.9374800149544686    0.0000000000000000   10.9374800149544686
    10.9374800149544686   10.9374800149544686    0.0000000000000012
Si
 128
Direct
  0.0625000000000000  0.0625000000000000  0.0625000000000000
  0.3125000000000000  0.0625000000000000  0.0625000000000000
  0.5625000000000000  0.0625000000000000  0.0625000000000000
  0.8125000000000000  0.0625000000000000  0.0625000000000000
  0.0625000000000000  0.3125000000000000  0.0625000000000000
  0.3125000000000000  0.3125000000000000  0.0625000000000000
  0.5625000000000000  0.3125000000000000  0.0625000000000000
  0.8125000000000000  0.3125000000000000  0.0625000000000000
  0.0625000000000000  0.5625000000000000  0.0625000000000000
  0.3125000000000000  0.5625000000000000  0.0625000000000000
  0.5625000000000000  0.5625000000000000  0.0625000000000000
  0.8125000000000000  0.5625000000000000  0.0625000000000000
  0.0625000000000000  0.8125000000000000  0.0625000000000000
  0.3125000000000000  0.8125000000000000  0.0625000000000000
  0.5625000000000000  0.8125000000000000  0.0625000000000000
  0.8125000000000000  0.8125000000000000  0.0625000000000000
  0.0625000000000000  0.0625000000000000  0.3125000000000000
  0.3125000000000000  0.0625000000000000  0.3125000000000000
  0.5625000000000000  0.0625000000000000  0.3125000000000000
  0.8125000000000000  0.0625000000000000  0.3125000000000000
  0.0625000000000000  0.3125000000000000  0.3125000000000000
  0.3125000000000000  0.3125000000000000  0.3125000000000000
  0.5625000000000000  0.3125000000000000  0.3125000000000000
  0.8125000000000000  0.3125000000000000  0.3125000000000000
  0.0625000000000000  0.5625000000000000  0.3125000000000000
  0.3125000000000000  0.5625000000000000  0.3125000000000000
  0.5625000000000000  0.5625000000000000  0.3125000000000000
  0.8125000000000000  0.5625000000000000  0.3125000000000000
  0.0625000000000000  0.8125000000000000  0.3125000000000000
  0.3125000000000000  0.8125000000000000  0.3125000000000000
  0.5625000000000000  0.8125000000000000  0.3125000000000000
  0.8125000000000000  0.8125000000000000  0.3125000000000000
  0.0625000000000000  0.0625000000000000  0.5625000000000000
  0.3125000000000000  0.0625000000000000  0.5625000000000000
  0.5625000000000000  0.0625000000000000  0.5625000000000000
  0.8125000000000000  0.0625000000000000  0.5625000000000000
  0.0625000000000000  0.3125000000000000  0.5625000000000000
  0.3125000000000000  0.3125000000000000  0.5625000000000000
  0.5625000000000000  0.3125000000000000  0.5625000000000000
  0.8125000000000000  0.3125000000000000  0.5625000000000000
  0.0625000000000000  0.5625000000000000  0.5625000000000000
  0.3125000000000000  0.5625000000000000  0.5625000000000000
  0.5625000000000000  0.5625000000000000  0.5625000000000000
  0.8125000000000000  0.5625000000000000  0.5625000000000000
  0.0625000000000000  0.8125000000000000  0.5625000000000000
  0.3125000000000000  0.8125000000000000  0.5625000000000000
  0.5625000000000000  0.8125000000000000  0.5625000000000000
  0.8125000000000000  0.8125000000000000  0.5625000000000000
  0.0625000000000000  0.0625000000000000  0.8125000000000000
  0.3125000000000000  0.0625000000000000  0.8125000000000000
  0.5625000000000000  0.0625000000000000  0.8125000000000000
  0.8125000000000000  0.0625000000000000  0.8125000000000000
  0.0625000000000000  0.3125000000000000  0.8125000000000000
  0.3125000000000000  0.3125000000000000  0.8125000000000000
  0.5625000000000000  0.3125000000000000  0.8125000000000000
  0.8125000000000000  0.3125000000000000  0.8125000000000000
  0.0625000000000000  0.5625000000000000  0.8125000000000000
  0.3125000000000000  0.5625000000000000  0.8125000000000000
  0.5625000000000000  0.5625000000000000  0.8125000000000000
  0.8125000000000000  0.5625000000000000  0.8125000000000000
  0.0625000000000000  0.8125000000000000  0.8125000000000000
  0.3125000000000000  0.8125000000000000  0.8125000000000000
  0.5625000000000000  0.8125000000000000  0.8125000000000000
  0.8125000000000000  0.8125000000000000  0.8125000000000000
  0.0000000000000000  0.0000000000000000  0.0000000000000000
  0.2500000000000000  0.0000000000000000  0.0000000000000000
  0.5000000000000000  0.0000000000000000  0.0000000000000000
  0.7500000000000000  0.0000000000000000  0.0000000000000000
  0.0000000000000000  0.2500000000000000  0.0000000000000000
  0.2500000000000000  0.2500000000000000  0.0000000000000000
  0.5000000000000000  0.2500000000000000  0.0000000000000000
  0.7500000000000000  0.2500000000000000  0.0000000000000000
  0.0000000000000000  0.5000000000000000  0.0000000000000000
  0.2500000000000000  0.5000000000000000  0.0000000000000000
  0.5000000000000000  0.5000000000000000  0.0000000000000000
  0.7500000000000000  0.5000000000000000  0.0000000000000000
  0.0000000000000000  0.7500000000000000  0.0000000000000000
  0.2500000000000000  0.7500000000000000  0.0000000000000000
  0.5000000000000000  0.7500000000000000  0.0000000000000000
  0.7500000000000000  0.7500000000000000  0.0000000000000000
  0.0000000000000000  0.0000000000000000  0.2500000000000000
  0.2500000000000000  0.0000000000000000  0.2500000000000000
  0.5000000000000000  0.0000000000000000  0.2500000000000000
  0.7500000000000000  0.0000000000000000  0.2500000000000000
  0.0000000000000000  0.2500000000000000  0.2500000000000000
  0.2500000000000000  0.2500000000000000  0.2500000000000000
  0.5000000000000000  0.2500000000000000  0.2500000000000000
  0.7500000000000000  0.2500000000000000  0.2500000000000000
  0.0000000000000000  0.5000000000000000  0.2500000000000000
  0.2500000000000000  0.5000000000000000  0.2500000000000000
  0.5000000000000000  0.5000000000000000  0.2500000000000000
  0.7500000000000000  0.5000000000000000  0.2500000000000000
  0.0000000000000000  0.7500000000000000  0.2500000000000000
  0.2500000000000000  0.7500000000000000  0.2500000000000000
  0.5000000000000000  0.7500000000000000  0.2500000000000000
  0.7500000000000000  0.7500000000000000  0.2500000000000000
  0.0000000000000000  0.0000000000000000  0.5000000000000000
  0.2500000000000000  0.0000000000000000  0.5000000000000000
  0.5000000000000000  0.0000000000000000  0.5000000000000000
  0.7500000000000000  0.0000000000000000  0.5000000000000000
  0.0000000000000000  0.2500000000000000  0.5000000000000000
  0.2500000000000000  0.2500000000000000  0.5000000000000000
  0.5000000000000000  0.2500000000000000  0.5000000000000000
  0.7500000000000000  0.2500000000000000  0.5000000000000000
  0.0000000000000000  0.5000000000000000  0.5000000000000000
  0.2500000000000000  0.5000000000000000  0.5000000000000000
  0.5000000000000000  0.5000000000000000  0.5000000000000000
  0.7500000000000000  0.5000000000000000  0.5000000000000000
  0.0000000000000000  0.7500000000000000  0.5000000000000000
  0.2500000000000000  0.7500000000000000  0.5000000000000000
  0.5000000000000000  0.7500000000000000  0.5000000000000000
  0.7500000000000000  0.7500000000000000  0.5000000000000000
  0.0000000000000000  0.0000000000000000  0.7500000000000000
  0.2500000000000000  0.0000000000000000  0.7500000000000000
  0.5000000000000000  0.0000000000000000  0.7500000000000000
  0.7500000000000000  0.0000000000000000  0.7500000000000000
  0.0000000000000000  0.2500000000000000  0.7500000000000000
  0.2500000000000000  0.2500000000000000  0.7500000000000000
  0.5000000000000000  0.2500000000000000  0.7500000000000000
  0.7500000000000000  0.2500000000000000  0.7500000000000000
  0.0000000000000000  0.5000000000000000  0.7500000000000000
  0.2500000000000000  0.5000000000000000  0.7500000000000000
  0.5000000000000000  0.5000000000000000  0.7500000000000000
  0.7500000000000000  0.5000000000000000  0.7500000000000000
  0.0000000000000000  0.7500000000000000  0.7500000000000000
  0.2500000000000000  0.7500000000000000  0.7500000000000000
  0.5000000000000000  0.7500000000000000  0.7500000000000000
  0.7500000000000000  0.7500000000000000  0.7500000000000000
