<?xml version="1.0" encoding="ISO-8859-1"?>
<modeling>
 <generator>
  <i name="program" type="string">vasp </i>
  <i name="version" type="string">6.4.3  </i>
  <i name="subversion" type="string">19Mar24 (build Jul 11 2024 12:30:41) complex                          parallel </i>
  <i name="platform" type="string">LinuxIFC </i>
  <i name="date" type="string">2025 05 31 </i>
  <i name="time" type="string">13:14:11 </i>
 </generator>
 <incar>
  <i type="string" name="SYSTEM">Si</i>
  <i type="int" name="ISTART">     0</i>
  <i type="string" name="PREC">Accurate</i>
  <i type="int" name="ICHARG">     2</i>
  <i type="int" name="NELM">   200</i>
  <i name="EDIFF">      0.00000001</i>
  <i name="EDIFFG">     -0.00002000</i>
  <i name="ENCUT">    600.00000000</i>
  <i type="int" name="ISMEAR">     0</i>
  <i name="SIGMA">      0.01000000</i>
 </incar>
 <primitive_cell>
  <structure name="primitive_cell" >
   <crystal>
    <varray name="basis" >
     <v>      -0.00000000      10.93748001      10.93748001 </v>
     <v>      10.93748001       0.00000000      10.93748001 </v>
     <v>      10.93748001      10.93748001       0.00000000 </v>
    </varray>
    <i name="volume">   2616.86797951 </i>
    <varray name="rec_basis" >
     <v>      -0.04571437       0.04571437       0.04571437 </v>
     <v>       0.04571437      -0.04571437       0.04571437 </v>
     <v>       0.04571437       0.04571437      -0.04571437 </v>
    </varray>
   </crystal>
   <varray name="positions" >
    <v>       0.06314650       0.06250000       0.06250000 </v>
    <v>       0.31250000       0.06250000       0.06250000 </v>
    <v>       0.56250000       0.06250000       0.06250000 </v>
    <v>       0.81250000       0.06250000       0.06250000 </v>
    <v>       0.06250000       0.31250000       0.06250000 </v>
    <v>       0.31250000       0.31250000       0.06250000 </v>
    <v>       0.56250000       0.31250000       0.06250000 </v>
    <v>       0.81250000       0.31250000       0.06250000 </v>
    <v>       0.06250000       0.56250000       0.06250000 </v>
    <v>       0.31250000       0.56250000       0.06250000 </v>
    <v>       0.56250000       0.56250000       0.06250000 </v>
    <v>       0.81250000       0.56250000       0.06250000 </v>
    <v>       0.06250000       0.81250000       0.06250000 </v>
    <v>       0.31250000       0.81250000       0.06250000 </v>
    <v>       0.56250000       0.81250000       0.06250000 </v>
    <v>       0.81250000       0.81250000       0.06250000 </v>
    <v>       0.06250000       0.06250000       0.31250000 </v>
    <v>       0.31250000       0.06250000       0.31250000 </v>
    <v>       0.56250000       0.06250000       0.31250000 </v>
    <v>       0.81250000       0.06250000       0.31250000 </v>
    <v>       0.06250000       0.31250000       0.31250000 </v>
    <v>       0.31250000       0.31250000       0.31250000 </v>
    <v>       0.56250000       0.31250000       0.31250000 </v>
    <v>       0.81250000       0.31250000       0.31250000 </v>
    <v>       0.06250000       0.56250000       0.31250000 </v>
    <v>       0.31250000       0.56250000       0.31250000 </v>
    <v>       0.56250000       0.56250000       0.31250000 </v>
    <v>       0.81250000       0.56250000       0.31250000 </v>
    <v>       0.06250000       0.81250000       0.31250000 </v>
    <v>       0.31250000       0.81250000       0.31250000 </v>
    <v>       0.56250000       0.81250000       0.31250000 </v>
    <v>       0.81250000       0.81250000       0.31250000 </v>
    <v>       0.06250000       0.06250000       0.56250000 </v>
    <v>       0.31250000       0.06250000       0.56250000 </v>
    <v>       0.56250000       0.06250000       0.56250000 </v>
    <v>       0.81250000       0.06250000       0.56250000 </v>
    <v>       0.06250000       0.31250000       0.56250000 </v>
    <v>       0.31250000       0.31250000       0.56250000 </v>
    <v>       0.56250000       0.31250000       0.56250000 </v>
    <v>       0.81250000       0.31250000       0.56250000 </v>
    <v>       0.06250000       0.56250000       0.56250000 </v>
    <v>       0.31250000       0.56250000       0.56250000 </v>
    <v>       0.56250000       0.56250000       0.56250000 </v>
    <v>       0.81250000       0.56250000       0.56250000 </v>
    <v>       0.06250000       0.81250000       0.56250000 </v>
    <v>       0.31250000       0.81250000       0.56250000 </v>
    <v>       0.56250000       0.81250000       0.56250000 </v>
    <v>       0.81250000       0.81250000       0.56250000 </v>
    <v>       0.06250000       0.06250000       0.81250000 </v>
    <v>       0.31250000       0.06250000       0.81250000 </v>
    <v>       0.56250000       0.06250000       0.81250000 </v>
    <v>       0.81250000       0.06250000       0.81250000 </v>
    <v>       0.06250000       0.31250000       0.81250000 </v>
    <v>       0.31250000       0.31250000       0.81250000 </v>
    <v>       0.56250000       0.31250000       0.81250000 </v>
    <v>       0.81250000       0.31250000       0.81250000 </v>
    <v>       0.06250000       0.56250000       0.81250000 </v>
    <v>       0.31250000       0.56250000       0.81250000 </v>
    <v>       0.56250000       0.56250000       0.81250000 </v>
    <v>       0.81250000       0.56250000       0.81250000 </v>
    <v>       0.06250000       0.81250000       0.81250000 </v>
    <v>       0.31250000       0.81250000       0.81250000 </v>
    <v>       0.56250000       0.81250000       0.81250000 </v>
    <v>       0.81250000       0.81250000       0.81250000 </v>
    <v>       0.00000000       0.00000000       0.00000000 </v>
    <v>       0.25000000       0.00000000       1.00000000 </v>
    <v>       0.50000000       0.00000000       1.00000000 </v>
    <v>       0.75000000       0.00000000       1.00000000 </v>
    <v>       0.00000000       0.25000000       1.00000000 </v>
    <v>       0.25000000       0.25000000       1.00000000 </v>
    <v>       0.50000000       0.25000000       1.00000000 </v>
    <v>       0.75000000       0.25000000       1.00000000 </v>
    <v>       0.00000000       0.50000000       1.00000000 </v>
    <v>       0.25000000       0.50000000       1.00000000 </v>
    <v>       0.50000000       0.50000000       1.00000000 </v>
    <v>       0.75000000       0.50000000       1.00000000 </v>
    <v>       0.00000000       0.75000000       1.00000000 </v>
    <v>       0.25000000       0.75000000       1.00000000 </v>
    <v>       0.50000000       0.75000000       1.00000000 </v>
    <v>       0.75000000       0.75000000       1.00000000 </v>
    <v>       1.00000000       1.00000000       0.25000000 </v>
    <v>       0.25000000       0.00000000       0.25000000 </v>
    <v>       0.50000000       0.00000000       0.25000000 </v>
    <v>       0.75000000       0.00000000       0.25000000 </v>
    <v>       1.00000000       0.25000000       0.25000000 </v>
    <v>       0.25000000       0.25000000       0.25000000 </v>
    <v>       0.50000000       0.25000000       0.25000000 </v>
    <v>       0.75000000       0.25000000       0.25000000 </v>
    <v>       0.00000000       0.50000000       0.25000000 </v>
    <v>       0.25000000       0.50000000       0.25000000 </v>
    <v>       0.50000000       0.50000000       0.25000000 </v>
    <v>       0.75000000       0.50000000       0.25000000 </v>
    <v>       0.00000000       0.75000000       0.25000000 </v>
    <v>       0.25000000       0.75000000       0.25000000 </v>
    <v>       0.50000000       0.75000000       0.25000000 </v>
    <v>       0.75000000       0.75000000       0.25000000 </v>
    <v>       1.00000000       1.00000000       0.50000000 </v>
    <v>       0.25000000       0.00000000       0.50000000 </v>
    <v>       0.50000000       0.00000000       0.50000000 </v>
    <v>       0.75000000       0.00000000       0.50000000 </v>
    <v>       1.00000000       0.25000000       0.50000000 </v>
    <v>       0.25000000       0.25000000       0.50000000 </v>
    <v>       0.50000000       0.25000000       0.50000000 </v>
    <v>       0.75000000       0.25000000       0.50000000 </v>
    <v>       1.00000000       0.50000000       0.50000000 </v>
    <v>       0.25000000       0.50000000       0.50000000 </v>
    <v>       0.50000000       0.50000000       0.50000000 </v>
    <v>       0.75000000       0.50000000       0.50000000 </v>
    <v>       0.00000000       0.75000000       0.50000000 </v>
    <v>       0.25000000       0.75000000       0.50000000 </v>
    <v>       0.50000000       0.75000000       0.50000000 </v>
    <v>       0.75000000       0.75000000       0.50000000 </v>
    <v>       1.00000000       1.00000000       0.75000000 </v>
    <v>       0.25000000       1.00000000       0.75000000 </v>
    <v>       0.50000000       0.00000000       0.75000000 </v>
    <v>       0.75000000       0.00000000       0.75000000 </v>
    <v>       1.00000000       0.25000000       0.75000000 </v>
    <v>       0.25000000       0.25000000       0.75000000 </v>
    <v>       0.50000000       0.25000000       0.75000000 </v>
    <v>       0.75000000       0.25000000       0.75000000 </v>
    <v>       1.00000000       0.50000000       0.75000000 </v>
    <v>       0.25000000       0.50000000       0.75000000 </v>
    <v>       0.50000000       0.50000000       0.75000000 </v>
    <v>       0.75000000       0.50000000       0.75000000 </v>
    <v>       1.00000000       0.75000000       0.75000000 </v>
    <v>       0.25000000       0.75000000       0.75000000 </v>
    <v>       0.50000000       0.75000000       0.75000000 </v>
    <v>       0.75000000       0.75000000       0.75000000 </v>
   </varray>
  </structure>
  <varray name="primitive_index" >
   <v type="int" >        1 </v>
   <v type="int" >        2 </v>
   <v type="int" >        3 </v>
   <v type="int" >        4 </v>
   <v type="int" >        5 </v>
   <v type="int" >        6 </v>
   <v type="int" >        7 </v>
   <v type="int" >        8 </v>
   <v type="int" >        9 </v>
   <v type="int" >       10 </v>
   <v type="int" >       11 </v>
   <v type="int" >       12 </v>
   <v type="int" >       13 </v>
   <v type="int" >       14 </v>
   <v type="int" >       15 </v>
   <v type="int" >       16 </v>
   <v type="int" >       17 </v>
   <v type="int" >       18 </v>
   <v type="int" >       19 </v>
   <v type="int" >       20 </v>
   <v type="int" >       21 </v>
   <v type="int" >       22 </v>
   <v type="int" >       23 </v>
   <v type="int" >       24 </v>
   <v type="int" >       25 </v>
   <v type="int" >       26 </v>
   <v type="int" >       27 </v>
   <v type="int" >       28 </v>
   <v type="int" >       29 </v>
   <v type="int" >       30 </v>
   <v type="int" >       31 </v>
   <v type="int" >       32 </v>
   <v type="int" >       33 </v>
   <v type="int" >       34 </v>
   <v type="int" >       35 </v>
   <v type="int" >       36 </v>
   <v type="int" >       37 </v>
   <v type="int" >       38 </v>
   <v type="int" >       39 </v>
   <v type="int" >       40 </v>
   <v type="int" >       41 </v>
   <v type="int" >       42 </v>
   <v type="int" >       43 </v>
   <v type="int" >       44 </v>
   <v type="int" >       45 </v>
   <v type="int" >       46 </v>
   <v type="int" >       47 </v>
   <v type="int" >       48 </v>
   <v type="int" >       49 </v>
   <v type="int" >       50 </v>
   <v type="int" >       51 </v>
   <v type="int" >       52 </v>
   <v type="int" >       53 </v>
   <v type="int" >       54 </v>
   <v type="int" >       55 </v>
   <v type="int" >       56 </v>
   <v type="int" >       57 </v>
   <v type="int" >       58 </v>
   <v type="int" >       59 </v>
   <v type="int" >       60 </v>
   <v type="int" >       61 </v>
   <v type="int" >       62 </v>
   <v type="int" >       63 </v>
   <v type="int" >       64 </v>
   <v type="int" >       65 </v>
   <v type="int" >       66 </v>
   <v type="int" >       67 </v>
   <v type="int" >       68 </v>
   <v type="int" >       69 </v>
   <v type="int" >       70 </v>
   <v type="int" >       71 </v>
   <v type="int" >       72 </v>
   <v type="int" >       73 </v>
   <v type="int" >       74 </v>
   <v type="int" >       75 </v>
   <v type="int" >       76 </v>
   <v type="int" >       77 </v>
   <v type="int" >       78 </v>
   <v type="int" >       79 </v>
   <v type="int" >       80 </v>
   <v type="int" >       81 </v>
   <v type="int" >       82 </v>
   <v type="int" >       83 </v>
   <v type="int" >       84 </v>
   <v type="int" >       85 </v>
   <v type="int" >       86 </v>
   <v type="int" >       87 </v>
   <v type="int" >       88 </v>
   <v type="int" >       89 </v>
   <v type="int" >       90 </v>
   <v type="int" >       91 </v>
   <v type="int" >       92 </v>
   <v type="int" >       93 </v>
   <v type="int" >       94 </v>
   <v type="int" >       95 </v>
   <v type="int" >       96 </v>
   <v type="int" >       97 </v>
   <v type="int" >       98 </v>
   <v type="int" >       99 </v>
   <v type="int" >      100 </v>
   <v type="int" >      101 </v>
   <v type="int" >      102 </v>
   <v type="int" >      103 </v>
   <v type="int" >      104 </v>
   <v type="int" >      105 </v>
   <v type="int" >      106 </v>
   <v type="int" >      107 </v>
   <v type="int" >      108 </v>
   <v type="int" >      109 </v>
   <v type="int" >      110 </v>
   <v type="int" >      111 </v>
   <v type="int" >      112 </v>
   <v type="int" >      113 </v>
   <v type="int" >      114 </v>
   <v type="int" >      115 </v>
   <v type="int" >      116 </v>
   <v type="int" >      117 </v>
   <v type="int" >      118 </v>
   <v type="int" >      119 </v>
   <v type="int" >      120 </v>
   <v type="int" >      121 </v>
   <v type="int" >      122 </v>
   <v type="int" >      123 </v>
   <v type="int" >      124 </v>
   <v type="int" >      125 </v>
   <v type="int" >      126 </v>
   <v type="int" >      127 </v>
   <v type="int" >      128 </v>
  </varray>
 </primitive_cell>
 <kpoints>
  <generation param="Gamma">
   <v type="int" name="divisions">       3        3        3 </v>
   <v name="usershift">      0.00000000       0.00000000       0.00000000 </v>
   <v name="genvec1">      0.33333333      -0.00000000      -0.00000000 </v>
   <v name="genvec2">     -0.00000000       0.33333333      -0.00000000 </v>
   <v name="genvec3">     -0.00000000       0.00000000       0.33333333 </v>
   <v name="shift">      0.00000000       0.00000000       0.00000000 </v>
  </generation>
  <varray name="kpointlist" >
   <v>       0.00000000       0.00000000       0.00000000 </v>
   <v>       0.33333333       0.00000000       0.00000000 </v>
   <v>       0.00000000       0.33333333       0.00000000 </v>
   <v>       0.33333333       0.33333333       0.33333333 </v>
   <v>       0.33333333       0.33333333       0.00000000 </v>
   <v>       0.00000000       0.33333333       0.33333333 </v>
   <v>      -0.33333333       0.33333333       0.00000000 </v>
   <v>       0.00000000      -0.33333333       0.33333333 </v>
   <v>       0.33333333       0.33333333      -0.33333333 </v>
   <v>       0.33333333      -0.33333333      -0.33333333 </v>
  </varray>
  <varray name="weights" >
   <v>       0.03703704 </v>
   <v>       0.07407407 </v>
   <v>       0.14814815 </v>
   <v>       0.07407407 </v>
   <v>       0.14814815 </v>
   <v>       0.07407407 </v>
   <v>       0.14814815 </v>
   <v>       0.07407407 </v>
   <v>       0.14814815 </v>
   <v>       0.07407407 </v>
  </varray>
 </kpoints>
 <parameters>
  <separator name="general" >
   <i type="string" name="SYSTEM">Si</i>
   <i type="logical" name="LCOMPAT"> F  </i>
  </separator>
  <separator name="electronic" >
   <i type="string" name="PREC">accura</i>
   <i name="ENMAX">    600.00000000</i>
   <i name="ENAUG">    322.06900000</i>
   <i name="EDIFF">      0.00000001</i>
   <i type="int" name="IALGO">    38</i>
   <i type="int" name="IWAVPR">    10</i>
   <i type="int" name="NBANDS">   322</i>
   <i type="int" name="NBANDSLOW">    -1</i>
   <i type="int" name="NBANDSHIGH">    -1</i>
   <i name="NELECT">    512.00000000</i>
   <i type="int" name="TURBO">     0</i>
   <i type="int" name="IRESTART">     0</i>
   <i type="int" name="NREBOOT">     0</i>
   <i type="int" name="NMIN">     0</i>
   <i name="EREF">      0.00000000</i>
   <separator name="electronic smearing" >
    <i type="int" name="ISMEAR">     0</i>
    <i name="SIGMA">      0.01000000</i>
    <i name="KSPACING">      0.50000000</i>
    <i type="logical" name="KGAMMA"> T  </i>
    <i type="logical" name="KBLOWUP"> T  </i>
   </separator>
   <separator name="electronic projectors" >
    <i type="logical" name="LREAL"> F  </i>
    <v name="ROPT">      0.00000000</v>
    <i type="int" name="LMAXPAW">  -100</i>
    <i type="int" name="LMAXMIX">     2</i>
    <i type="logical" name="NLSPLINE"> F  </i>
   </separator>
   <separator name="electronic startup" >
    <i type="int" name="ISTART">     0</i>
    <i type="int" name="ICHARG">     2</i>
    <i type="int" name="INIWAV">     1</i>
   </separator>
   <separator name="electronic spin" >
    <i type="int" name="ISPIN">     1</i>
    <i type="logical" name="LNONCOLLINEAR"> F  </i>
    <v name="MAGMOM">      1.00000000      1.00000000      1.00000000      1.00000000      1.00000000      1.00000000      1.00000000      1.00000000      1.00000000      1.00000000      1.00000000      1.00000000      1.00000000      1.00000000      1.00000000      1.00000000      1.00000000      1.00000000      1.00000000      1.00000000
      1.00000000      1.00000000      1.00000000      1.00000000      1.00000000      1.00000000      1.00000000      1.00000000      1.00000000      1.00000000      1.00000000      1.00000000      1.00000000      1.00000000      1.00000000      1.00000000      1.00000000      1.00000000      1.00000000      1.00000000
      1.00000000      1.00000000      1.00000000      1.00000000      1.00000000      1.00000000      1.00000000      1.00000000      1.00000000      1.00000000      1.00000000      1.00000000      1.00000000      1.00000000      1.00000000      1.00000000      1.00000000      1.00000000      1.00000000      1.00000000
      1.00000000      1.00000000      1.00000000      1.00000000      1.00000000      1.00000000      1.00000000      1.00000000      1.00000000      1.00000000      1.00000000      1.00000000      1.00000000      1.00000000      1.00000000      1.00000000      1.00000000      1.00000000      1.00000000      1.00000000
      1.00000000      1.00000000      1.00000000      1.00000000      1.00000000      1.00000000      1.00000000      1.00000000      1.00000000      1.00000000      1.00000000      1.00000000      1.00000000      1.00000000      1.00000000      1.00000000      1.00000000      1.00000000      1.00000000      1.00000000
      1.00000000      1.00000000      1.00000000      1.00000000      1.00000000      1.00000000      1.00000000      1.00000000      1.00000000      1.00000000      1.00000000      1.00000000      1.00000000      1.00000000      1.00000000      1.00000000      1.00000000      1.00000000      1.00000000      1.00000000
      1.00000000      1.00000000      1.00000000      1.00000000      1.00000000      1.00000000      1.00000000      1.00000000</v>
    <i name="NUPDOWN">     -1.00000000</i>
    <i type="logical" name="LSORBIT"> F  </i>
    <v name="SAXIS">      0.00000000      0.00000000      1.00000000</v>
    <i type="logical" name="LSPIRAL"> F  </i>
    <v name="QSPIRAL">      0.00000000      0.00000000      0.00000000</v>
    <i type="logical" name="LZEROZ"> F  </i>
   </separator>
   <separator name="electronic exchange-correlation" >
    <i type="logical" name="LASPH"> F  </i>
   </separator>
   <separator name="electronic convergence" >
    <i type="int" name="NELM">   200</i>
    <i type="int" name="NELMDL">    -5</i>
    <i type="int" name="NELMIN">     2</i>
    <i name="ENINI">    600.00000000</i>
    <separator name="electronic convergence detail" >
     <i type="logical" name="LDIAG"> T  </i>
     <i type="logical" name="LSUBROT"> F  </i>
     <i name="WEIMIN">      0.00000000</i>
     <i name="EBREAK">      0.00000000</i>
     <i name="DEPER">      0.30000000</i>
     <i type="int" name="NRMM">     4</i>
     <i name="TIME">      0.40000000</i>
    </separator>
   </separator>
   <separator name="electronic mixer" >
    <i name="AMIX">      0.40000000</i>
    <i name="BMIX">      1.00000000</i>
    <i name="AMIN">      0.10000000</i>
    <i name="AMIX_MAG">      1.60000000</i>
    <i name="BMIX_MAG">      1.00000000</i>
    <separator name="electronic mixer details" >
     <i type="int" name="IMIX">     4</i>
     <i type="logical" name="MIXFIRST"> F  </i>
     <i type="int" name="MAXMIX">   -45</i>
     <i name="WC">    100.00000000</i>
     <i type="int" name="INIMIX">     1</i>
     <i type="int" name="MIXPRE">     1</i>
     <i type="int" name="MREMOVE">     5</i>
    </separator>
   </separator>
   <separator name="electronic dipolcorrection" >
    <i type="logical" name="LDIPOL"> F  </i>
    <i type="logical" name="LMONO"> F  </i>
    <i type="int" name="IDIPOL">     0</i>
    <i name="EPSILON">      1.00000000</i>
    <v name="DIPOL">   -100.00000000   -100.00000000   -100.00000000</v>
    <i name="EFIELD">      0.00000000</i>
    <i type="logical" name="LVACPOTAV"> F  </i>
   </separator>
  </separator>
  <separator name="grids" >
   <i type="int" name="NGX">   126</i>
   <i type="int" name="NGY">   126</i>
   <i type="int" name="NGZ">   126</i>
   <i type="int" name="NGXF">   252</i>
   <i type="int" name="NGYF">   252</i>
   <i type="int" name="NGZF">   252</i>
   <i type="logical" name="ADDGRID"> F  </i>
  </separator>
  <separator name="ionic" >
   <i type="int" name="NSW">     0</i>
   <i type="int" name="IBRION">    -1</i>
   <i type="int" name="MDALGO">     0</i>
   <i type="int" name="ISIF">     2</i>
   <i name="PSTRESS">      0.00000000</i>
   <i name="EDIFFG">     -0.00002000</i>
   <i type="int" name="NFREE">     0</i>
   <i name="POTIM">      0.50000000</i>
   <i name="SMASS">     -3.00000000</i>
   <i name="SCALEE">      1.00000000</i>
  </separator>
  <separator name="ionic md" >
   <i name="TEBEG">      0.00010000</i>
   <i name="TEEND">      0.00010000</i>
   <i type="int" name="NBLOCK">     1</i>
   <i type="int" name="KBLOCK">     1</i>
   <i type="int" name="NPACO">   256</i>
   <i name="APACO">     10.00000000</i>
  </separator>
  <separator name="symmetry" >
   <i type="int" name="ISYM">     2</i>
   <i name="SYMPREC">      0.00001000</i>
  </separator>
  <separator name="dos" >
   <i type="int" name="LORBIT">     0</i>
   <v name="RWIGS">     -1.00000000</v>
   <i type="int" name="NEDOS">   301</i>
   <i name="EMIN">     10.00000000</i>
   <i name="EMAX">    -10.00000000</i>
   <i name="EFERMI">      0.00000000</i>
  </separator>
  <separator name="writing" >
   <i type="int" name="NWRITE">     2</i>
   <i type="logical" name="LWAVE"> T  </i>
   <i type="logical" name="LDOWNSAMPLE"> F  </i>
   <i type="logical" name="LCHARG"> T  </i>
   <i type="logical" name="LPARD"> F  </i>
   <i type="logical" name="LVTOT"> F  </i>
   <i type="logical" name="LVHAR"> F  </i>
   <i type="logical" name="LELF"> F  </i>
   <i type="logical" name="LOPTICS"> F  </i>
   <v name="STM">      0.00000000      0.00000000      0.00000000      0.00000000      0.00000000      0.00000000      0.00000000</v>
  </separator>
  <separator name="performance" >
   <i type="int" name="NPAR">     2</i>
   <i type="int" name="NSIM">     4</i>
   <i type="int" name="NBLK">    -1</i>
   <i type="logical" name="LPLANE"> T  </i>
   <i type="logical" name="LSCALAPACK"> T  </i>
   <i type="logical" name="LSCAAWARE"> F  </i>
   <i type="logical" name="LSCALU"> F  </i>
   <i type="logical" name="LASYNC"> F  </i>
   <i type="logical" name="LORBITALREAL"> F  </i>
  </separator>
  <separator name="miscellaneous" >
   <i type="int" name="IDIOT">     3</i>
   <i type="int" name="PHON_NSTRUCT">    -1</i>
   <i type="logical" name="LMUSIC"> F  </i>
   <v name="POMASS">     28.08500000</v>
   <v name="DARWINR">      0.00000000</v>
   <v name="DARWINV">      1.00000000</v>
   <i type="logical" name="LCORR"> T  </i>
  </separator>
  <i type="logical" name="GGA_COMPAT"> T  </i>
  <i type="logical" name="LBERRY"> F  </i>
  <i type="int" name="ICORELEVEL">     0</i>
  <i type="logical" name="LDAU"> F  </i>
  <i type="int" name="I_CONSTRAINED_M">     0</i>
  <separator name="electronic exchange-correlation" >
   <i type="string" name="GGA    ">PE</i>
   <i type="string" name="XC_C">1</i>
   <i type="int" name="VOSKOWN">     0</i>
   <i type="logical" name="LHFCALC"> F  </i>
   <i type="string" name="PRECFOCK"></i>
   <i type="logical" name="LSYMGRAD"> F  </i>
   <i type="logical" name="LHFONE"> F  </i>
   <i type="logical" name="LRHFCALC"> F  </i>
   <i type="logical" name="LTHOMAS"> F  </i>
   <i type="logical" name="LMODELHF"> F  </i>
   <i type="logical" name="LFOCKACE"> F  </i>
   <i name="ENCUT4O">     -1.00000000</i>
   <i type="int" name="EXXOEP">     0</i>
   <i type="int" name="FOURORBIT">     0</i>
   <i name="AEXX">      0.00000000</i>
   <i name="HFALPHA">      0.00000000</i>
   <i name="MCALPHA">      0.00000000</i>
   <i name="ALDAX">      1.00000000</i>
   <i name="AGGAX">      1.00000000</i>
   <i name="AMGGAX">      1.00000000</i>
   <i name="ALDAC">      1.00000000</i>
   <i name="AGGAC">      1.00000000</i>
   <i name="AMGGAC">      1.00000000</i>
   <i type="int" name="NKREDX">     1</i>
   <i type="int" name="NKREDY">     1</i>
   <i type="int" name="NKREDZ">     1</i>
   <i type="logical" name="SHIFTRED"> F  </i>
   <i type="logical" name="ODDONLY"> F  </i>
   <i type="logical" name="EVENONLY"> F  </i>
   <i type="int" name="LMAXFOCK">     0</i>
   <i type="int" name="NMAXFOCKAE">     0</i>
   <i type="logical" name="LFOCKAEDFT"> F  </i>
   <i name="HFSCREEN">      0.00000000</i>
   <i name="HFSCREENC">      0.00000000</i>
   <i type="int" name="NBANDSGWLOW">     0</i>
  </separator>
  <separator name="vdW DFT" >
   <i type="logical" name="LUSE_VDW"> F  </i>
   <i type="int" name="IVDW_NL">    -1</i>
   <i type="logical" name="LSPIN_VDW"> F  </i>
   <i name="ZAB_VDW">     -0.84910000</i>
   <i name="GAMMA_VDW">      1.39626340</i>
   <i name="ALPHA_VDW">      0.00000000</i>
   <i name="PARAM1">      0.12340000</i>
   <i name="PARAM2">      1.00000000</i>
   <i name="BPARAM">      6.30000000</i>
   <i name="CPARAM">      0.00930000</i>
  </separator>
  <separator name="model GW" >
   <i type="int" name="MODEL_GW">     0</i>
   <i name="MODEL_EPS0">     12.26656865</i>
   <i name="MODEL_ALPHA">      1.00000000</i>
  </separator>
  <separator name="linear response parameters" >
   <i type="logical" name="LEPSILON"> F  </i>
   <i type="logical" name="LRPA"> F  </i>
   <i type="logical" name="LNABLA"> F  </i>
   <i type="logical" name="LVEL"> F  </i>
   <i name="CSHIFT">      0.10000000</i>
   <i name="OMEGAMAX">     -1.00000000</i>
   <i name="DEG_THRESHOLD">      0.00200000</i>
   <i name="RTIME">     -0.10000000</i>
   <i name="WPLASMAI">      0.00000000</i>
   <v name="DFIELD">      0.00000000      0.00000000      0.00000000</v>
   <v name="WPLASMA">      0.00000000      0.00000000      0.00000000      0.00000000      0.00000000      0.00000000      0.00000000      0.00000000      0.00000000</v>
  </separator>
  <separator name="orbital magnetization" >
   <i type="logical" name="NUCIND"> F  </i>
   <v name="MAGPOS">      0.00000000      0.00000000      0.00000000</v>
   <i type="logical" name="LNICSALL"> T  </i>
   <i type="logical" name="ORBITALMAG"> F  </i>
   <i type="logical" name="LMAGBLOCH"> F  </i>
   <i type="logical" name="LCHIMAG"> F  </i>
   <i type="logical" name="LGAUGE"> T  </i>
   <i type="int" name="MAGATOM">     0</i>
   <v name="MAGDIPOL">      0.00000000      0.00000000      0.00000000</v>
   <v name="AVECCONST">      0.00000000      0.00000000      0.00000000</v>
  </separator>
  <separator name="response functions" >
   <i type="logical" name="LALL_IN_ONE"> F  </i>
   <i type="int" name="IALL_IN_ONE">    -1</i>
   <i type="int" name="NBANDS_WAVE">    -1</i>
   <i type="logical" name="LFINITE_TEMPERATURE"> F  </i>
   <i type="logical" name="LADDER"> F  </i>
   <i type="logical" name="LRPAFORCE"> F  </i>
   <i type="logical" name="LFXC"> F  </i>
   <i type="logical" name="LHARTREE"> T  </i>
   <i type="int" name="IBSE">     0</i>
   <v type="int" name="KPOINT">    -1     0     0     0</v>
   <i type="logical" name="LTCTC"> F  </i>
   <i type="logical" name="LTCTE"> F  </i>
   <i type="logical" name="LTETE"> F  </i>
   <i type="logical" name="LTRIPLET"> F  </i>
   <i type="logical" name="LFXCEPS"> F  </i>
   <i type="logical" name="LFXHEG"> F  </i>
   <i type="int" name="NATURALO">     2</i>
   <i type="logical" name="LHOLEGF"> F  </i>
   <i type="logical" name="L2ORDER"> F  </i>
   <i type="logical" name="LDMP1"> F  </i>
   <i type="logical" name="LMP2LT"> F  </i>
   <i type="logical" name="LSMP2LT"> F  </i>
   <i type="logical" name="LGWLF"> F  </i>
   <i name="ENCUTGW">     -1.60000002</i>
   <i name="ENCUTGWSOFT">     -1.60000002</i>
   <i name="ENCUTLF">     -1.00000000</i>
   <i type="logical" name="ESF_SPLINES"> F  </i>
   <i name="ESF_CONV">      0.01000000</i>
   <i type="int" name="ESF_NINTER">    15</i>
   <i type="int" name="LMAXMP2">    -1</i>
   <i name="SCISSOR">      0.00000000</i>
   <i type="int" name="NOMEGA">     0</i>
   <i type="int" name="NOMEGAR">     0</i>
   <i type="int" name="NBANDSGW">    -1</i>
   <i type="int" name="NBANDSO">    -1</i>
   <i type="int" name="NBANDSV">    -1</i>
   <i type="int" name="NELMGW">     1</i>
   <i type="int" name="NELMHF">     1</i>
   <i type="int" name="DIM">     3</i>
   <i type="int" name="IESPILON">     4</i>
   <i type="int" name="ANTIRES">     0</i>
   <i name="OMEGAMAX">    -30.00000000</i>
   <i name="OMEGAMIN">    -30.00000000</i>
   <i name="OMEGATL">   -200.00000000</i>
   <i type="int" name="OMEGAGRID">     0</i>
   <i name="CSHIFT">     -0.10000000</i>
   <i type="logical" name="LSELFENERGY"> F  </i>
   <i type="logical" name="LSPECTRAL"> F  </i>
   <i type="logical" name="LSPECTRALGW"> F  </i>
   <i type="logical" name="LSINGLES"> F  </i>
   <i type="logical" name="LFERMIGW"> F  </i>
   <i type="logical" name="ODDONLYGW"> F  </i>
   <i type="logical" name="EVENONLYGW"> F  </i>
   <i type="int" name="NKREDLFX">     1</i>
   <i type="int" name="NKREDLFY">     1</i>
   <i type="int" name="NKREDLFZ">     1</i>
   <i type="int" name="MAXMEM">  2800</i>
   <i type="int" name="TELESCOPE">     0</i>
   <i type="int" name="NTAUPAR">    -1</i>
   <i type="int" name="NOMEGAPAR">    -1</i>
   <i name="DAMP_NEWTON">      0.80000001</i>
   <i name="LAMBDA">      1.00000000</i>
  </separator>
  <separator name="External order field" >
   <i name="OFIELD_KAPPA">      0.00000000</i>
   <v name="OFIELD_K">      0.00000000      0.00000000      0.00000000</v>
   <i name="OFIELD_Q6_NEAR">      0.00000000</i>
   <i name="OFIELD_Q6_FAR">      0.00000000</i>
   <i name="OFIELD_A">      0.00000000</i>
  </separator>
  <separator name="optional k-points parameters" >
   <i type="int" name="KPOINTS_OPT_MODE">     1</i>
   <i type="logical" name="LKPOINTS_OPT"> F  </i>
  </separator>
 </parameters>
 <atominfo>
  <atoms>     128 </atoms>
  <types>       1 </types>
  <array name="atoms" >
   <dimension dim="1">ion</dimension>
   <field type="string">element</field>
   <field type="int">atomtype</field>
   <set>
    <rc><c>Si</c><c>   1</c></rc>
    <rc><c>Si</c><c>   1</c></rc>
    <rc><c>Si</c><c>   1</c></rc>
    <rc><c>Si</c><c>   1</c></rc>
    <rc><c>Si</c><c>   1</c></rc>
    <rc><c>Si</c><c>   1</c></rc>
    <rc><c>Si</c><c>   1</c></rc>
    <rc><c>Si</c><c>   1</c></rc>
    <rc><c>Si</c><c>   1</c></rc>
    <rc><c>Si</c><c>   1</c></rc>
    <rc><c>Si</c><c>   1</c></rc>
    <rc><c>Si</c><c>   1</c></rc>
    <rc><c>Si</c><c>   1</c></rc>
    <rc><c>Si</c><c>   1</c></rc>
    <rc><c>Si</c><c>   1</c></rc>
    <rc><c>Si</c><c>   1</c></rc>
    <rc><c>Si</c><c>   1</c></rc>
    <rc><c>Si</c><c>   1</c></rc>
    <rc><c>Si</c><c>   1</c></rc>
    <rc><c>Si</c><c>   1</c></rc>
    <rc><c>Si</c><c>   1</c></rc>
    <rc><c>Si</c><c>   1</c></rc>
    <rc><c>Si</c><c>   1</c></rc>
    <rc><c>Si</c><c>   1</c></rc>
    <rc><c>Si</c><c>   1</c></rc>
    <rc><c>Si</c><c>   1</c></rc>
    <rc><c>Si</c><c>   1</c></rc>
    <rc><c>Si</c><c>   1</c></rc>
    <rc><c>Si</c><c>   1</c></rc>
    <rc><c>Si</c><c>   1</c></rc>
    <rc><c>Si</c><c>   1</c></rc>
    <rc><c>Si</c><c>   1</c></rc>
    <rc><c>Si</c><c>   1</c></rc>
    <rc><c>Si</c><c>   1</c></rc>
    <rc><c>Si</c><c>   1</c></rc>
    <rc><c>Si</c><c>   1</c></rc>
    <rc><c>Si</c><c>   1</c></rc>
    <rc><c>Si</c><c>   1</c></rc>
    <rc><c>Si</c><c>   1</c></rc>
    <rc><c>Si</c><c>   1</c></rc>
    <rc><c>Si</c><c>   1</c></rc>
    <rc><c>Si</c><c>   1</c></rc>
    <rc><c>Si</c><c>   1</c></rc>
    <rc><c>Si</c><c>   1</c></rc>
    <rc><c>Si</c><c>   1</c></rc>
    <rc><c>Si</c><c>   1</c></rc>
    <rc><c>Si</c><c>   1</c></rc>
    <rc><c>Si</c><c>   1</c></rc>
    <rc><c>Si</c><c>   1</c></rc>
    <rc><c>Si</c><c>   1</c></rc>
    <rc><c>Si</c><c>   1</c></rc>
    <rc><c>Si</c><c>   1</c></rc>
    <rc><c>Si</c><c>   1</c></rc>
    <rc><c>Si</c><c>   1</c></rc>
    <rc><c>Si</c><c>   1</c></rc>
    <rc><c>Si</c><c>   1</c></rc>
    <rc><c>Si</c><c>   1</c></rc>
    <rc><c>Si</c><c>   1</c></rc>
    <rc><c>Si</c><c>   1</c></rc>
    <rc><c>Si</c><c>   1</c></rc>
    <rc><c>Si</c><c>   1</c></rc>
    <rc><c>Si</c><c>   1</c></rc>
    <rc><c>Si</c><c>   1</c></rc>
    <rc><c>Si</c><c>   1</c></rc>
    <rc><c>Si</c><c>   1</c></rc>
    <rc><c>Si</c><c>   1</c></rc>
    <rc><c>Si</c><c>   1</c></rc>
    <rc><c>Si</c><c>   1</c></rc>
    <rc><c>Si</c><c>   1</c></rc>
    <rc><c>Si</c><c>   1</c></rc>
    <rc><c>Si</c><c>   1</c></rc>
    <rc><c>Si</c><c>   1</c></rc>
    <rc><c>Si</c><c>   1</c></rc>
    <rc><c>Si</c><c>   1</c></rc>
    <rc><c>Si</c><c>   1</c></rc>
    <rc><c>Si</c><c>   1</c></rc>
    <rc><c>Si</c><c>   1</c></rc>
    <rc><c>Si</c><c>   1</c></rc>
    <rc><c>Si</c><c>   1</c></rc>
    <rc><c>Si</c><c>   1</c></rc>
    <rc><c>Si</c><c>   1</c></rc>
    <rc><c>Si</c><c>   1</c></rc>
    <rc><c>Si</c><c>   1</c></rc>
    <rc><c>Si</c><c>   1</c></rc>
    <rc><c>Si</c><c>   1</c></rc>
    <rc><c>Si</c><c>   1</c></rc>
    <rc><c>Si</c><c>   1</c></rc>
    <rc><c>Si</c><c>   1</c></rc>
    <rc><c>Si</c><c>   1</c></rc>
    <rc><c>Si</c><c>   1</c></rc>
    <rc><c>Si</c><c>   1</c></rc>
    <rc><c>Si</c><c>   1</c></rc>
    <rc><c>Si</c><c>   1</c></rc>
    <rc><c>Si</c><c>   1</c></rc>
    <rc><c>Si</c><c>   1</c></rc>
    <rc><c>Si</c><c>   1</c></rc>
    <rc><c>Si</c><c>   1</c></rc>
    <rc><c>Si</c><c>   1</c></rc>
    <rc><c>Si</c><c>   1</c></rc>
    <rc><c>Si</c><c>   1</c></rc>
    <rc><c>Si</c><c>   1</c></rc>
    <rc><c>Si</c><c>   1</c></rc>
    <rc><c>Si</c><c>   1</c></rc>
    <rc><c>Si</c><c>   1</c></rc>
    <rc><c>Si</c><c>   1</c></rc>
    <rc><c>Si</c><c>   1</c></rc>
    <rc><c>Si</c><c>   1</c></rc>
    <rc><c>Si</c><c>   1</c></rc>
    <rc><c>Si</c><c>   1</c></rc>
    <rc><c>Si</c><c>   1</c></rc>
    <rc><c>Si</c><c>   1</c></rc>
    <rc><c>Si</c><c>   1</c></rc>
    <rc><c>Si</c><c>   1</c></rc>
    <rc><c>Si</c><c>   1</c></rc>
    <rc><c>Si</c><c>   1</c></rc>
    <rc><c>Si</c><c>   1</c></rc>
    <rc><c>Si</c><c>   1</c></rc>
    <rc><c>Si</c><c>   1</c></rc>
    <rc><c>Si</c><c>   1</c></rc>
    <rc><c>Si</c><c>   1</c></rc>
    <rc><c>Si</c><c>   1</c></rc>
    <rc><c>Si</c><c>   1</c></rc>
    <rc><c>Si</c><c>   1</c></rc>
    <rc><c>Si</c><c>   1</c></rc>
    <rc><c>Si</c><c>   1</c></rc>
    <rc><c>Si</c><c>   1</c></rc>
    <rc><c>Si</c><c>   1</c></rc>
    <rc><c>Si</c><c>   1</c></rc>
   </set>
  </array>
  <array name="atomtypes" >
   <dimension dim="1">type</dimension>
   <field type="int">atomspertype</field>
   <field type="string">element</field>
   <field>mass</field>
   <field>valence</field>
   <field type="string">pseudopotential</field>
   <set>
    <rc><c> 128</c><c>Si</c><c>     28.08500000</c><c>      4.00000000</c><c>  PAW_PBE Si 05Jan2001                  </c></rc>
   </set>
  </array>
 </atominfo>
 <structure name="initialpos" >
  <crystal>
   <varray name="basis" >
    <v>      -0.00000000      10.93748001      10.93748001 </v>
    <v>      10.93748001       0.00000000      10.93748001 </v>
    <v>      10.93748001      10.93748001       0.00000000 </v>
   </varray>
   <i name="volume">   2616.86797951 </i>
   <varray name="rec_basis" >
    <v>      -0.04571437       0.04571437       0.04571437 </v>
    <v>       0.04571437      -0.04571437       0.04571437 </v>
    <v>       0.04571437       0.04571437      -0.04571437 </v>
   </varray>
  </crystal>
  <varray name="positions" >
   <v>       0.06314650       0.06250000       0.06250000 </v>
   <v>       0.31250000       0.06250000       0.06250000 </v>
   <v>       0.56250000       0.06250000       0.06250000 </v>
   <v>       0.81250000       0.06250000       0.06250000 </v>
   <v>       0.06250000       0.31250000       0.06250000 </v>
   <v>       0.31250000       0.31250000       0.06250000 </v>
   <v>       0.56250000       0.31250000       0.06250000 </v>
   <v>       0.81250000       0.31250000       0.06250000 </v>
   <v>       0.06250000       0.56250000       0.06250000 </v>
   <v>       0.31250000       0.56250000       0.06250000 </v>
   <v>       0.56250000       0.56250000       0.06250000 </v>
   <v>       0.81250000       0.56250000       0.06250000 </v>
   <v>       0.06250000       0.81250000       0.06250000 </v>
   <v>       0.31250000       0.81250000       0.06250000 </v>
   <v>       0.56250000       0.81250000       0.06250000 </v>
   <v>       0.81250000       0.81250000       0.06250000 </v>
   <v>       0.06250000       0.06250000       0.31250000 </v>
   <v>       0.31250000       0.06250000       0.31250000 </v>
   <v>       0.56250000       0.06250000       0.31250000 </v>
   <v>       0.81250000       0.06250000       0.31250000 </v>
   <v>       0.06250000       0.31250000       0.31250000 </v>
   <v>       0.31250000       0.31250000       0.31250000 </v>
   <v>       0.56250000       0.31250000       0.31250000 </v>
   <v>       0.81250000       0.31250000       0.31250000 </v>
   <v>       0.06250000       0.56250000       0.31250000 </v>
   <v>       0.31250000       0.56250000       0.31250000 </v>
   <v>       0.56250000       0.56250000       0.31250000 </v>
   <v>       0.81250000       0.56250000       0.31250000 </v>
   <v>       0.06250000       0.81250000       0.31250000 </v>
   <v>       0.31250000       0.81250000       0.31250000 </v>
   <v>       0.56250000       0.81250000       0.31250000 </v>
   <v>       0.81250000       0.81250000       0.31250000 </v>
   <v>       0.06250000       0.06250000       0.56250000 </v>
   <v>       0.31250000       0.06250000       0.56250000 </v>
   <v>       0.56250000       0.06250000       0.56250000 </v>
   <v>       0.81250000       0.06250000       0.56250000 </v>
   <v>       0.06250000       0.31250000       0.56250000 </v>
   <v>       0.31250000       0.31250000       0.56250000 </v>
   <v>       0.56250000       0.31250000       0.56250000 </v>
   <v>       0.81250000       0.31250000       0.56250000 </v>
   <v>       0.06250000       0.56250000       0.56250000 </v>
   <v>       0.31250000       0.56250000       0.56250000 </v>
   <v>       0.56250000       0.56250000       0.56250000 </v>
   <v>       0.81250000       0.56250000       0.56250000 </v>
   <v>       0.06250000       0.81250000       0.56250000 </v>
   <v>       0.31250000       0.81250000       0.56250000 </v>
   <v>       0.56250000       0.81250000       0.56250000 </v>
   <v>       0.81250000       0.81250000       0.56250000 </v>
   <v>       0.06250000       0.06250000       0.81250000 </v>
   <v>       0.31250000       0.06250000       0.81250000 </v>
   <v>       0.56250000       0.06250000       0.81250000 </v>
   <v>       0.81250000       0.06250000       0.81250000 </v>
   <v>       0.06250000       0.31250000       0.81250000 </v>
   <v>       0.31250000       0.31250000       0.81250000 </v>
   <v>       0.56250000       0.31250000       0.81250000 </v>
   <v>       0.81250000       0.31250000       0.81250000 </v>
   <v>       0.06250000       0.56250000       0.81250000 </v>
   <v>       0.31250000       0.56250000       0.81250000 </v>
   <v>       0.56250000       0.56250000       0.81250000 </v>
   <v>       0.81250000       0.56250000       0.81250000 </v>
   <v>       0.06250000       0.81250000       0.81250000 </v>
   <v>       0.31250000       0.81250000       0.81250000 </v>
   <v>       0.56250000       0.81250000       0.81250000 </v>
   <v>       0.81250000       0.81250000       0.81250000 </v>
   <v>       0.00000000       0.00000000       0.00000000 </v>
   <v>       0.25000000       0.00000000       0.00000000 </v>
   <v>       0.50000000       0.00000000       0.00000000 </v>
   <v>       0.75000000       0.00000000       0.00000000 </v>
   <v>       0.00000000       0.25000000       0.00000000 </v>
   <v>       0.25000000       0.25000000       0.00000000 </v>
   <v>       0.50000000       0.25000000       0.00000000 </v>
   <v>       0.75000000       0.25000000       0.00000000 </v>
   <v>       0.00000000       0.50000000       0.00000000 </v>
   <v>       0.25000000       0.50000000       0.00000000 </v>
   <v>       0.50000000       0.50000000       0.00000000 </v>
   <v>       0.75000000       0.50000000       0.00000000 </v>
   <v>       0.00000000       0.75000000       0.00000000 </v>
   <v>       0.25000000       0.75000000       0.00000000 </v>
   <v>       0.50000000       0.75000000       0.00000000 </v>
   <v>       0.75000000       0.75000000       0.00000000 </v>
   <v>       0.00000000       0.00000000       0.25000000 </v>
   <v>       0.25000000       0.00000000       0.25000000 </v>
   <v>       0.50000000       0.00000000       0.25000000 </v>
   <v>       0.75000000       0.00000000       0.25000000 </v>
   <v>       0.00000000       0.25000000       0.25000000 </v>
   <v>       0.25000000       0.25000000       0.25000000 </v>
   <v>       0.50000000       0.25000000       0.25000000 </v>
   <v>       0.75000000       0.25000000       0.25000000 </v>
   <v>       0.00000000       0.50000000       0.25000000 </v>
   <v>       0.25000000       0.50000000       0.25000000 </v>
   <v>       0.50000000       0.50000000       0.25000000 </v>
   <v>       0.75000000       0.50000000       0.25000000 </v>
   <v>       0.00000000       0.75000000       0.25000000 </v>
   <v>       0.25000000       0.75000000       0.25000000 </v>
   <v>       0.50000000       0.75000000       0.25000000 </v>
   <v>       0.75000000       0.75000000       0.25000000 </v>
   <v>       0.00000000       0.00000000       0.50000000 </v>
   <v>       0.25000000       0.00000000       0.50000000 </v>
   <v>       0.50000000       0.00000000       0.50000000 </v>
   <v>       0.75000000       0.00000000       0.50000000 </v>
   <v>       0.00000000       0.25000000       0.50000000 </v>
   <v>       0.25000000       0.25000000       0.50000000 </v>
   <v>       0.50000000       0.25000000       0.50000000 </v>
   <v>       0.75000000       0.25000000       0.50000000 </v>
   <v>       0.00000000       0.50000000       0.50000000 </v>
   <v>       0.25000000       0.50000000       0.50000000 </v>
   <v>       0.50000000       0.50000000       0.50000000 </v>
   <v>       0.75000000       0.50000000       0.50000000 </v>
   <v>       0.00000000       0.75000000       0.50000000 </v>
   <v>       0.25000000       0.75000000       0.50000000 </v>
   <v>       0.50000000       0.75000000       0.50000000 </v>
   <v>       0.75000000       0.75000000       0.50000000 </v>
   <v>       0.00000000       0.00000000       0.75000000 </v>
   <v>       0.25000000       0.00000000       0.75000000 </v>
   <v>       0.50000000       0.00000000       0.75000000 </v>
   <v>       0.75000000       0.00000000       0.75000000 </v>
   <v>       0.00000000       0.25000000       0.75000000 </v>
   <v>       0.25000000       0.25000000       0.75000000 </v>
   <v>       0.50000000       0.25000000       0.75000000 </v>
   <v>       0.75000000       0.25000000       0.75000000 </v>
   <v>       0.00000000       0.50000000       0.75000000 </v>
   <v>       0.25000000       0.50000000       0.75000000 </v>
   <v>       0.50000000       0.50000000       0.75000000 </v>
   <v>       0.75000000       0.50000000       0.75000000 </v>
   <v>       0.00000000       0.75000000       0.75000000 </v>
   <v>       0.25000000       0.75000000       0.75000000 </v>
   <v>       0.50000000       0.75000000       0.75000000 </v>
   <v>       0.75000000       0.75000000       0.75000000 </v>
  </varray>
 </structure>
 <calculation>
  <scstep>
   <time name="dav">  100.43  101.09</time>
   <time name="total">  100.99  101.65</time>
   <energy>
    <i name="alphaZ">    210.76215512 </i>
    <i name="ewald"> -14524.44350961 </i>
    <i name="hartreedc">   -724.70459968 </i>
    <i name="XCdc">  -1195.85311845 </i>
    <i name="pawpsdc">  11279.84635070 </i>
    <i name="pawaedc">  -9027.90627711 </i>
    <i name="eentropy">     -0.00137238 </i>
    <i name="bandstr">   2327.07522076 </i>
    <i name="atom">  13192.51962260 </i>
    <i name="e_fr_energy">   1537.29447196 </i>
    <i name="e_wo_entrp">   1537.29584434 </i>
    <i name="e_0_energy">   1537.29515815 </i>
   </energy>
  </scstep>
  <scstep>
   <time name="dav">  114.11  114.87</time>
   <time name="total">  114.12  114.87</time>
   <energy>
    <i name="e_fr_energy">   -536.21705417 </i>
    <i name="e_wo_entrp">   -536.21705417 </i>
    <i name="e_0_energy">   -536.21705417 </i>
   </energy>
  </scstep>
  <scstep>
   <time name="dav">  116.88  117.65</time>
   <time name="total">  116.88  117.65</time>
   <energy>
    <i name="e_fr_energy">   -700.49378054 </i>
    <i name="e_wo_entrp">   -700.49378054 </i>
    <i name="e_0_energy">   -700.49378054 </i>
   </energy>
  </scstep>
  <scstep>
   <time name="dav">  114.78  115.52</time>
   <time name="total">  114.78  115.53</time>
   <energy>
    <i name="e_fr_energy">   -704.99636550 </i>
    <i name="e_wo_entrp">   -704.99636550 </i>
    <i name="e_0_energy">   -704.99636550 </i>
   </energy>
  </scstep>
  <scstep>
   <time name="dav">  115.77  116.52</time>
   <time name="total">  120.34  121.12</time>
   <energy>
    <i name="e_fr_energy">   -705.14812201 </i>
    <i name="e_wo_entrp">   -705.14812201 </i>
    <i name="e_0_energy">   -705.14812201 </i>
   </energy>
  </scstep>
  <scstep>
   <time name="dav">  110.50  111.21</time>
   <time name="total">  115.62  116.38</time>
   <energy>
    <i name="e_fr_energy">   -697.73530191 </i>
    <i name="e_wo_entrp">   -697.73530191 </i>
    <i name="e_0_energy">   -697.73530191 </i>
   </energy>
  </scstep>
  <scstep>
   <time name="dav">  107.66  108.36</time>
   <time name="total">  112.79  113.53</time>
   <energy>
    <i name="e_fr_energy">   -694.32797210 </i>
    <i name="e_wo_entrp">   -694.32797210 </i>
    <i name="e_0_energy">   -694.32797210 </i>
   </energy>
  </scstep>
  <scstep>
   <time name="dav">  110.50  111.22</time>
   <time name="total">  115.63  116.39</time>
   <energy>
    <i name="e_fr_energy">   -694.38155083 </i>
    <i name="e_wo_entrp">   -694.38155083 </i>
    <i name="e_0_energy">   -694.38155083 </i>
   </energy>
  </scstep>
  <scstep>
   <time name="dav">  118.36  119.14</time>
   <time name="total">  123.49  124.30</time>
   <energy>
    <i name="e_fr_energy">   -694.39271754 </i>
    <i name="e_wo_entrp">   -694.39271754 </i>
    <i name="e_0_energy">   -694.39271754 </i>
   </energy>
  </scstep>
  <scstep>
   <time name="dav">  107.16  107.85</time>
   <time name="total">  112.28  113.01</time>
   <energy>
    <i name="e_fr_energy">   -694.39759789 </i>
    <i name="e_wo_entrp">   -694.39759789 </i>
    <i name="e_0_energy">   -694.39759789 </i>
   </energy>
  </scstep>
  <scstep>
   <time name="dav">  109.81  110.52</time>
   <time name="total">  114.96  115.71</time>
   <energy>
    <i name="e_fr_energy">   -694.39780492 </i>
    <i name="e_wo_entrp">   -694.39780492 </i>
    <i name="e_0_energy">   -694.39780492 </i>
   </energy>
  </scstep>
  <scstep>
   <time name="dav">  114.86  115.60</time>
   <time name="total">  120.00  120.78</time>
   <energy>
    <i name="e_fr_energy">   -694.39783915 </i>
    <i name="e_wo_entrp">   -694.39783915 </i>
    <i name="e_0_energy">   -694.39783915 </i>
   </energy>
  </scstep>
  <scstep>
   <time name="dav">  110.01  110.72</time>
   <time name="total">  115.14  115.90</time>
   <energy>
    <i name="e_fr_energy">   -694.39783061 </i>
    <i name="e_wo_entrp">   -694.39783061 </i>
    <i name="e_0_energy">   -694.39783061 </i>
   </energy>
  </scstep>
  <scstep>
   <time name="dav">  116.04  116.79</time>
   <time name="total">  121.17  121.96</time>
   <energy>
    <i name="e_fr_energy">   -694.39783122 </i>
    <i name="e_wo_entrp">   -694.39783122 </i>
    <i name="e_0_energy">   -694.39783122 </i>
   </energy>
  </scstep>
  <scstep>
   <time name="dav">   89.95   90.54</time>
   <time name="total">   95.08   95.70</time>
   <energy>
    <i name="e_fr_energy">   -694.39783085 </i>
    <i name="e_wo_entrp">   -694.39783085 </i>
    <i name="e_0_energy">   -694.39783085 </i>
   </energy>
  </scstep>
  <scstep>
   <time name="dav">   76.14   76.64</time>
   <time name="total">   81.28   81.83</time>
   <energy>
    <i name="e_fr_energy">   -694.39783056 </i>
    <i name="e_wo_entrp">   -694.39783056 </i>
    <i name="e_0_energy">   -694.39783056 </i>
   </energy>
  </scstep>
  <scstep>
   <time name="dav">   73.74   74.22</time>
   <time name="total">   74.29   74.79</time>
   <energy>
    <i name="alphaZ">    210.76215512 </i>
    <i name="ewald"> -14524.44350961 </i>
    <i name="hartreedc">   -970.97968728 </i>
    <i name="XCdc">  -1155.92862909 </i>
    <i name="pawpsdc">  53043.82293017 </i>
    <i name="pawaedc"> -50805.01900467 </i>
    <i name="eentropy">     -0.00000000 </i>
    <i name="bandstr">    314.86829220 </i>
    <i name="atom">  13192.51962260 </i>
    <i name="e_fr_energy">   -694.39783056 </i>
    <i name="e_wo_entrp">   -694.39783056 </i>
    <i name="e_0_energy">   -694.39783056 </i>
   </energy>
  </scstep>
  <structure>
   <crystal>
    <varray name="basis" >
     <v>      -0.00000000      10.93748001      10.93748001 </v>
     <v>      10.93748001       0.00000000      10.93748001 </v>
     <v>      10.93748001      10.93748001       0.00000000 </v>
    </varray>
    <i name="volume">   2616.86797951 </i>
    <varray name="rec_basis" >
     <v>      -0.04571437       0.04571437       0.04571437 </v>
     <v>       0.04571437      -0.04571437       0.04571437 </v>
     <v>       0.04571437       0.04571437      -0.04571437 </v>
    </varray>
   </crystal>
   <varray name="positions" >
    <v>       0.06314650       0.06250000       0.06250000 </v>
    <v>       0.31250000       0.06250000       0.06250000 </v>
    <v>       0.56250000       0.06250000       0.06250000 </v>
    <v>       0.81250000       0.06250000       0.06250000 </v>
    <v>       0.06250000       0.31250000       0.06250000 </v>
    <v>       0.31250000       0.31250000       0.06250000 </v>
    <v>       0.56250000       0.31250000       0.06250000 </v>
    <v>       0.81250000       0.31250000       0.06250000 </v>
    <v>       0.06250000       0.56250000       0.06250000 </v>
    <v>       0.31250000       0.56250000       0.06250000 </v>
    <v>       0.56250000       0.56250000       0.06250000 </v>
    <v>       0.81250000       0.56250000       0.06250000 </v>
    <v>       0.06250000       0.81250000       0.06250000 </v>
    <v>       0.31250000       0.81250000       0.06250000 </v>
    <v>       0.56250000       0.81250000       0.06250000 </v>
    <v>       0.81250000       0.81250000       0.06250000 </v>
    <v>       0.06250000       0.06250000       0.31250000 </v>
    <v>       0.31250000       0.06250000       0.31250000 </v>
    <v>       0.56250000       0.06250000       0.31250000 </v>
    <v>       0.81250000       0.06250000       0.31250000 </v>
    <v>       0.06250000       0.31250000       0.31250000 </v>
    <v>       0.31250000       0.31250000       0.31250000 </v>
    <v>       0.56250000       0.31250000       0.31250000 </v>
    <v>       0.81250000       0.31250000       0.31250000 </v>
    <v>       0.06250000       0.56250000       0.31250000 </v>
    <v>       0.31250000       0.56250000       0.31250000 </v>
    <v>       0.56250000       0.56250000       0.31250000 </v>
    <v>       0.81250000       0.56250000       0.31250000 </v>
    <v>       0.06250000       0.81250000       0.31250000 </v>
    <v>       0.31250000       0.81250000       0.31250000 </v>
    <v>       0.56250000       0.81250000       0.31250000 </v>
    <v>       0.81250000       0.81250000       0.31250000 </v>
    <v>       0.06250000       0.06250000       0.56250000 </v>
    <v>       0.31250000       0.06250000       0.56250000 </v>
    <v>       0.56250000       0.06250000       0.56250000 </v>
    <v>       0.81250000       0.06250000       0.56250000 </v>
    <v>       0.06250000       0.31250000       0.56250000 </v>
    <v>       0.31250000       0.31250000       0.56250000 </v>
    <v>       0.56250000       0.31250000       0.56250000 </v>
    <v>       0.81250000       0.31250000       0.56250000 </v>
    <v>       0.06250000       0.56250000       0.56250000 </v>
    <v>       0.31250000       0.56250000       0.56250000 </v>
    <v>       0.56250000       0.56250000       0.56250000 </v>
    <v>       0.81250000       0.56250000       0.56250000 </v>
    <v>       0.06250000       0.81250000       0.56250000 </v>
    <v>       0.31250000       0.81250000       0.56250000 </v>
    <v>       0.56250000       0.81250000       0.56250000 </v>
    <v>       0.81250000       0.81250000       0.56250000 </v>
    <v>       0.06250000       0.06250000       0.81250000 </v>
    <v>       0.31250000       0.06250000       0.81250000 </v>
    <v>       0.56250000       0.06250000       0.81250000 </v>
    <v>       0.81250000       0.06250000       0.81250000 </v>
    <v>       0.06250000       0.31250000       0.81250000 </v>
    <v>       0.31250000       0.31250000       0.81250000 </v>
    <v>       0.56250000       0.31250000       0.81250000 </v>
    <v>       0.81250000       0.31250000       0.81250000 </v>
    <v>       0.06250000       0.56250000       0.81250000 </v>
    <v>       0.31250000       0.56250000       0.81250000 </v>
    <v>       0.56250000       0.56250000       0.81250000 </v>
    <v>       0.81250000       0.56250000       0.81250000 </v>
    <v>       0.06250000       0.81250000       0.81250000 </v>
    <v>       0.31250000       0.81250000       0.81250000 </v>
    <v>       0.56250000       0.81250000       0.81250000 </v>
    <v>       0.81250000       0.81250000       0.81250000 </v>
    <v>       0.00000000       0.00000000       0.00000000 </v>
    <v>       0.25000000       0.00000000       0.00000000 </v>
    <v>       0.50000000       0.00000000       0.00000000 </v>
    <v>       0.75000000       0.00000000       0.00000000 </v>
    <v>       0.00000000       0.25000000       0.00000000 </v>
    <v>       0.25000000       0.25000000       0.00000000 </v>
    <v>       0.50000000       0.25000000       0.00000000 </v>
    <v>       0.75000000       0.25000000       0.00000000 </v>
    <v>       0.00000000       0.50000000       0.00000000 </v>
    <v>       0.25000000       0.50000000       0.00000000 </v>
    <v>       0.50000000       0.50000000       0.00000000 </v>
    <v>       0.75000000       0.50000000       0.00000000 </v>
    <v>       0.00000000       0.75000000       0.00000000 </v>
    <v>       0.25000000       0.75000000       0.00000000 </v>
    <v>       0.50000000       0.75000000       0.00000000 </v>
    <v>       0.75000000       0.75000000       0.00000000 </v>
    <v>       0.00000000       0.00000000       0.25000000 </v>
    <v>       0.25000000       0.00000000       0.25000000 </v>
    <v>       0.50000000       0.00000000       0.25000000 </v>
    <v>       0.75000000       0.00000000       0.25000000 </v>
    <v>       0.00000000       0.25000000       0.25000000 </v>
    <v>       0.25000000       0.25000000       0.25000000 </v>
    <v>       0.50000000       0.25000000       0.25000000 </v>
    <v>       0.75000000       0.25000000       0.25000000 </v>
    <v>       0.00000000       0.50000000       0.25000000 </v>
    <v>       0.25000000       0.50000000       0.25000000 </v>
    <v>       0.50000000       0.50000000       0.25000000 </v>
    <v>       0.75000000       0.50000000       0.25000000 </v>
    <v>       0.00000000       0.75000000       0.25000000 </v>
    <v>       0.25000000       0.75000000       0.25000000 </v>
    <v>       0.50000000       0.75000000       0.25000000 </v>
    <v>       0.75000000       0.75000000       0.25000000 </v>
    <v>       0.00000000       0.00000000       0.50000000 </v>
    <v>       0.25000000       0.00000000       0.50000000 </v>
    <v>       0.50000000       0.00000000       0.50000000 </v>
    <v>       0.75000000       0.00000000       0.50000000 </v>
    <v>       0.00000000       0.25000000       0.50000000 </v>
    <v>       0.25000000       0.25000000       0.50000000 </v>
    <v>       0.50000000       0.25000000       0.50000000 </v>
    <v>       0.75000000       0.25000000       0.50000000 </v>
    <v>       0.00000000       0.50000000       0.50000000 </v>
    <v>       0.25000000       0.50000000       0.50000000 </v>
    <v>       0.50000000       0.50000000       0.50000000 </v>
    <v>       0.75000000       0.50000000       0.50000000 </v>
    <v>       0.00000000       0.75000000       0.50000000 </v>
    <v>       0.25000000       0.75000000       0.50000000 </v>
    <v>       0.50000000       0.75000000       0.50000000 </v>
    <v>       0.75000000       0.75000000       0.50000000 </v>
    <v>       0.00000000       0.00000000       0.75000000 </v>
    <v>       0.25000000       0.00000000       0.75000000 </v>
    <v>       0.50000000       0.00000000       0.75000000 </v>
    <v>       0.75000000       0.00000000       0.75000000 </v>
    <v>       0.00000000       0.25000000       0.75000000 </v>
    <v>       0.25000000       0.25000000       0.75000000 </v>
    <v>       0.50000000       0.25000000       0.75000000 </v>
    <v>       0.75000000       0.25000000       0.75000000 </v>
    <v>       0.00000000       0.50000000       0.75000000 </v>
    <v>       0.25000000       0.50000000       0.75000000 </v>
    <v>       0.50000000       0.50000000       0.75000000 </v>
    <v>       0.75000000       0.50000000       0.75000000 </v>
    <v>       0.00000000       0.75000000       0.75000000 </v>
    <v>       0.25000000       0.75000000       0.75000000 </v>
    <v>       0.50000000       0.75000000       0.75000000 </v>
    <v>       0.75000000       0.75000000       0.75000000 </v>
   </varray>
  </structure>
  <varray name="forces" >
   <v>       0.00155686      -0.09074662      -0.09074662 </v>
   <v>      -0.00131853       0.00258026       0.00258026 </v>
   <v>      -0.00000328       0.00018590       0.00018590 </v>
   <v>       0.00130756       0.00254465       0.00254465 </v>
   <v>       0.00196427      -0.00376709       0.00191296 </v>
   <v>      -0.00007067       0.00026584       0.00008609 </v>
   <v>       0.00007271       0.00008555       0.00026407 </v>
   <v>      -0.00195701       0.00191823      -0.00376775 </v>
   <v>       0.00020614      -0.00137924      -0.00002007 </v>
   <v>       0.00000048       0.00033779       0.00033553 </v>
   <v>      -0.00020613      -0.00002071      -0.00138054 </v>
   <v>      -0.00000014       0.00033713       0.00033688 </v>
   <v>       0.00064903      -0.00245359       0.00059615 </v>
   <v>      -0.00064447       0.00060749      -0.00245436 </v>
   <v>       0.00012504       0.00013826       0.00021195 </v>
   <v>      -0.00012455       0.00021228       0.00013989 </v>
   <v>       0.00196427       0.00191296      -0.00376709 </v>
   <v>      -0.00007067       0.00008609       0.00026584 </v>
   <v>       0.00007271       0.00026407       0.00008555 </v>
   <v>      -0.00195701      -0.00376775       0.00191823 </v>
   <v>       0.00018662      -0.00009915      -0.00009915 </v>
   <v>      -0.00000041       0.00006758       0.00006758 </v>
   <v>      -0.00018688      -0.00009951      -0.00009951 </v>
   <v>      -0.00000003       0.00015988       0.00015988 </v>
   <v>       0.00036324      -0.00002807      -0.00010124 </v>
   <v>      -0.00036526      -0.00010063      -0.00002746 </v>
   <v>       0.00000794       0.00008345       0.00009016 </v>
   <v>      -0.00000773       0.00009040       0.00008371 </v>
   <v>       0.00000525      -0.00004701      -0.00004308 </v>
   <v>      -0.00000068       0.00005702       0.00015949 </v>
   <v>       0.00000029       0.00007581       0.00007563 </v>
   <v>      -0.00000094       0.00016020       0.00005585 </v>
   <v>       0.00020614      -0.00002007      -0.00137924 </v>
   <v>       0.00000048       0.00033553       0.00033779 </v>
   <v>      -0.00020613      -0.00138054      -0.00002071 </v>
   <v>      -0.00000014       0.00033688       0.00033713 </v>
   <v>       0.00036324      -0.00010124      -0.00002807 </v>
   <v>      -0.00036526      -0.00002746      -0.00010063 </v>
   <v>       0.00000794       0.00009016       0.00008345 </v>
   <v>      -0.00000773       0.00008371       0.00009040 </v>
   <v>       0.00000144      -0.00022658      -0.00022658 </v>
   <v>      -0.00001198       0.00007932       0.00007932 </v>
   <v>       0.00000016       0.00008021       0.00008021 </v>
   <v>       0.00001117       0.00007905       0.00007905 </v>
   <v>       0.00031122      -0.00015406       0.00002512 </v>
   <v>       0.00000420       0.00007170       0.00010213 </v>
   <v>      -0.00000466       0.00010197       0.00007089 </v>
   <v>      -0.00031150       0.00002579      -0.00015339 </v>
   <v>       0.00064903       0.00059615      -0.00245359 </v>
   <v>      -0.00064447      -0.00245436       0.00060749 </v>
   <v>       0.00012504       0.00021195       0.00013826 </v>
   <v>      -0.00012455       0.00013989       0.00021228 </v>
   <v>       0.00000525      -0.00004308      -0.00004701 </v>
   <v>      -0.00000068       0.00015949       0.00005702 </v>
   <v>       0.00000029       0.00007563       0.00007581 </v>
   <v>      -0.00000094       0.00005585       0.00016020 </v>
   <v>       0.00031122       0.00002512      -0.00015406 </v>
   <v>       0.00000420       0.00010213       0.00007170 </v>
   <v>      -0.00000466       0.00007089       0.00010197 </v>
   <v>      -0.00031150      -0.00015339       0.00002579 </v>
   <v>       0.00029315      -0.00009937      -0.00009937 </v>
   <v>      -0.00000134       0.00015955       0.00015955 </v>
   <v>      -0.00029259      -0.00009926      -0.00009926 </v>
   <v>      -0.00000016       0.00006769       0.00006769 </v>
   <v>       0.02901654       0.03655656       0.03655656 </v>
   <v>      -0.03038061       0.03756713       0.03756713 </v>
   <v>       0.00060993       0.00020998       0.00020998 </v>
   <v>      -0.00060488       0.00020130       0.00020130 </v>
   <v>      -0.00011460       0.00743878       0.00729714 </v>
   <v>       0.00010603      -0.00044854      -0.00022983 </v>
   <v>      -0.00000174      -0.00005444      -0.00005521 </v>
   <v>      -0.00010774      -0.00022745      -0.00044478 </v>
   <v>       0.00037251       0.00190176       0.00044312 </v>
   <v>       0.00008140      -0.00027365      -0.00013674 </v>
   <v>      -0.00008110      -0.00013554      -0.00027060 </v>
   <v>      -0.00036888       0.00044117       0.00190601 </v>
   <v>      -0.00023597       0.00129553      -0.00016599 </v>
   <v>       0.00000416      -0.00055863      -0.00054847 </v>
   <v>       0.00023700      -0.00016387       0.00129724 </v>
   <v>       0.00000054      -0.00020468      -0.00020385 </v>
   <v>      -0.00011460       0.00729714       0.00743878 </v>
   <v>       0.00010603      -0.00022983      -0.00044854 </v>
   <v>      -0.00000174      -0.00005521      -0.00005444 </v>
   <v>      -0.00010774      -0.00044478      -0.00022745 </v>
   <v>      -0.00041387       0.00007449       0.00007449 </v>
   <v>       0.00000878      -0.00007538      -0.00007538 </v>
   <v>      -0.00000870      -0.00007463      -0.00007463 </v>
   <v>       0.00041400       0.00007353       0.00007353 </v>
   <v>      -0.00021445       0.00002318       0.00015958 </v>
   <v>       0.00000050      -0.00008365      -0.00008392 </v>
   <v>       0.00021375       0.00015909       0.00002377 </v>
   <v>      -0.00000027      -0.00008513      -0.00008460 </v>
   <v>      -0.00051991      -0.00003326       0.00018646 </v>
   <v>       0.00052147       0.00018403      -0.00003249 </v>
   <v>       0.00001343      -0.00002809      -0.00009826 </v>
   <v>      -0.00001420      -0.00009903      -0.00002750 </v>
   <v>       0.00037251       0.00044312       0.00190176 </v>
   <v>       0.00008140      -0.00013674      -0.00027365 </v>
   <v>      -0.00008110      -0.00027060      -0.00013554 </v>
   <v>      -0.00036888       0.00190601       0.00044117 </v>
   <v>      -0.00021445       0.00015958       0.00002318 </v>
   <v>       0.00000050      -0.00008392      -0.00008365 </v>
   <v>       0.00021375       0.00002377       0.00015909 </v>
   <v>      -0.00000027      -0.00008460      -0.00008513 </v>
   <v>      -0.00029486       0.00007839       0.00007839 </v>
   <v>       0.00029599       0.00007748       0.00007748 </v>
   <v>       0.00001228      -0.00007734      -0.00007734 </v>
   <v>      -0.00001270      -0.00007757      -0.00007757 </v>
   <v>      -0.00000129       0.00007151       0.00007171 </v>
   <v>       0.00003261      -0.00004658      -0.00011698 </v>
   <v>       0.00000003      -0.00008997      -0.00008979 </v>
   <v>      -0.00003173      -0.00011730      -0.00004584 </v>
   <v>      -0.00023597      -0.00016599       0.00129553 </v>
   <v>       0.00000416      -0.00054847      -0.00055863 </v>
   <v>       0.00023700       0.00129724      -0.00016387 </v>
   <v>       0.00000054      -0.00020385      -0.00020468 </v>
   <v>      -0.00051991       0.00018646      -0.00003326 </v>
   <v>       0.00052147      -0.00003249       0.00018403 </v>
   <v>       0.00001343      -0.00009826      -0.00002809 </v>
   <v>      -0.00001420      -0.00002750      -0.00009903 </v>
   <v>      -0.00000129       0.00007171       0.00007151 </v>
   <v>       0.00003261      -0.00011698      -0.00004658 </v>
   <v>       0.00000003      -0.00008979      -0.00008997 </v>
   <v>      -0.00003173      -0.00004584      -0.00011730 </v>
   <v>      -0.00033477       0.00013107       0.00013107 </v>
   <v>       0.00001876      -0.00013088      -0.00013088 </v>
   <v>      -0.00001823      -0.00013054      -0.00013054 </v>
   <v>       0.00033536       0.00013026       0.00013026 </v>
  </varray>
  <varray name="stress" >
   <v>      -0.02607041      -0.03909643      -0.03909643 </v>
   <v>      -0.03909643      -0.02659858       0.00067607 </v>
   <v>      -0.03909643       0.00067607      -0.02659858 </v>
  </varray>
  <energy>
   <i name="e_fr_energy">   -694.39783056 </i>
   <i name="e_wo_entrp">   -694.39783056 </i>
   <i name="e_0_energy">   -694.39783056 </i>
  </energy>
  <time name="totalsc"> 2079.98 2093.66</time>
  <eigenvalues>
   <array>
    <dimension dim="1">band</dimension>
    <dimension dim="2">kpoint</dimension>
    <dimension dim="3">spin</dimension>
    <field>eigene</field>
    <field>occ</field>
    <set>
     <set comment="spin 1">
      <set comment="kpoint 1">
       <r>   -6.1987    1.0000 </r>
       <r>   -5.4150    1.0000 </r>
       <r>   -5.4139    1.0000 </r>
       <r>   -5.4138    1.0000 </r>
       <r>   -5.4138    1.0000 </r>
       <r>   -5.4138    1.0000 </r>
       <r>   -5.4138    1.0000 </r>
       <r>   -5.4137    1.0000 </r>
       <r>   -5.4127    1.0000 </r>
       <r>   -5.1371    1.0000 </r>
       <r>   -5.1362    1.0000 </r>
       <r>   -5.1362    1.0000 </r>
       <r>   -5.1362    1.0000 </r>
       <r>   -5.1362    1.0000 </r>
       <r>   -5.1353    1.0000 </r>
       <r>   -4.1968    1.0000 </r>
       <r>   -4.1948    1.0000 </r>
       <r>   -4.1948    1.0000 </r>
       <r>   -4.1947    1.0000 </r>
       <r>   -4.1947    1.0000 </r>
       <r>   -4.1946    1.0000 </r>
       <r>   -4.1946    1.0000 </r>
       <r>   -4.1946    1.0000 </r>
       <r>   -4.1946    1.0000 </r>
       <r>   -4.1945    1.0000 </r>
       <r>   -4.1945    1.0000 </r>
       <r>   -4.1926    1.0000 </r>
       <r>   -3.9207    1.0000 </r>
       <r>   -3.9201    1.0000 </r>
       <r>   -3.9201    1.0000 </r>
       <r>   -3.9194    1.0000 </r>
       <r>   -3.5390    1.0000 </r>
       <r>   -3.5351    1.0000 </r>
       <r>   -3.5351    1.0000 </r>
       <r>   -3.5350    1.0000 </r>
       <r>   -3.5349    1.0000 </r>
       <r>   -3.5349    1.0000 </r>
       <r>   -3.5349    1.0000 </r>
       <r>   -3.5349    1.0000 </r>
       <r>   -3.5348    1.0000 </r>
       <r>   -3.5348    1.0000 </r>
       <r>   -3.5348    1.0000 </r>
       <r>   -3.5348    1.0000 </r>
       <r>   -3.5348    1.0000 </r>
       <r>   -3.5348    1.0000 </r>
       <r>   -3.5347    1.0000 </r>
       <r>   -3.5347    1.0000 </r>
       <r>   -3.5347    1.0000 </r>
       <r>   -3.5347    1.0000 </r>
       <r>   -3.5347    1.0000 </r>
       <r>   -3.5346    1.0000 </r>
       <r>   -3.5345    1.0000 </r>
       <r>   -3.5344    1.0000 </r>
       <r>   -3.5344    1.0000 </r>
       <r>   -3.5305    1.0000 </r>
       <r>   -2.1314    1.0000 </r>
       <r>   -2.1304    1.0000 </r>
       <r>   -2.1303    1.0000 </r>
       <r>   -2.1303    1.0000 </r>
       <r>   -2.1302    1.0000 </r>
       <r>   -2.1292    1.0000 </r>
       <r>   -1.9779    1.0000 </r>
       <r>   -1.9759    1.0000 </r>
       <r>   -1.9758    1.0000 </r>
       <r>   -1.9758    1.0000 </r>
       <r>   -1.9757    1.0000 </r>
       <r>   -1.9757    1.0000 </r>
       <r>   -1.9757    1.0000 </r>
       <r>   -1.9757    1.0000 </r>
       <r>   -1.9756    1.0000 </r>
       <r>   -1.9756    1.0000 </r>
       <r>   -1.9755    1.0000 </r>
       <r>   -1.9735    1.0000 </r>
       <r>   -1.2533    1.0000 </r>
       <r>   -1.2526    1.0000 </r>
       <r>   -1.2526    1.0000 </r>
       <r>   -1.2519    1.0000 </r>
       <r>   -0.7118    1.0000 </r>
       <r>   -0.7083    1.0000 </r>
       <r>   -0.7080    1.0000 </r>
       <r>   -0.7078    1.0000 </r>
       <r>   -0.7077    1.0000 </r>
       <r>   -0.7077    1.0000 </r>
       <r>   -0.7076    1.0000 </r>
       <r>   -0.7076    1.0000 </r>
       <r>   -0.7076    1.0000 </r>
       <r>   -0.7076    1.0000 </r>
       <r>   -0.7075    1.0000 </r>
       <r>   -0.7075    1.0000 </r>
       <r>   -0.7075    1.0000 </r>
       <r>   -0.7075    1.0000 </r>
       <r>   -0.7075    1.0000 </r>
       <r>   -0.7075    1.0000 </r>
       <r>   -0.7074    1.0000 </r>
       <r>   -0.7074    1.0000 </r>
       <r>   -0.7074    1.0000 </r>
       <r>   -0.7073    1.0000 </r>
       <r>   -0.7072    1.0000 </r>
       <r>   -0.7071    1.0000 </r>
       <r>   -0.7067    1.0000 </r>
       <r>   -0.7033    1.0000 </r>
       <r>    0.1746    1.0000 </r>
       <r>    0.1763    1.0000 </r>
       <r>    0.1765    1.0000 </r>
       <r>    0.1765    1.0000 </r>
       <r>    0.1765    1.0000 </r>
       <r>    0.1766    1.0000 </r>
       <r>    0.1766    1.0000 </r>
       <r>    0.1767    1.0000 </r>
       <r>    0.1767    1.0000 </r>
       <r>    0.1768    1.0000 </r>
       <r>    0.1770    1.0000 </r>
       <r>    0.1786    1.0000 </r>
       <r>    1.7285    1.0000 </r>
       <r>    1.7292    1.0000 </r>
       <r>    1.7297    1.0000 </r>
       <r>    1.7297    1.0000 </r>
       <r>    1.7297    1.0000 </r>
       <r>    1.7297    1.0000 </r>
       <r>    1.7301    1.0000 </r>
       <r>    1.7308    1.0000 </r>
       <r>    1.8539    1.0000 </r>
       <r>    1.8542    1.0000 </r>
       <r>    1.8546    1.0000 </r>
       <r>    1.8548    1.0000 </r>
       <r>    1.8549    1.0000 </r>
       <r>    1.8549    1.0000 </r>
       <r>    1.8549    1.0000 </r>
       <r>    1.8550    1.0000 </r>
       <r>    1.8550    1.0000 </r>
       <r>    1.8552    1.0000 </r>
       <r>    1.8556    1.0000 </r>
       <r>    1.8559    1.0000 </r>
       <r>    1.9459    1.0000 </r>
       <r>    1.9462    1.0000 </r>
       <r>    1.9462    1.0000 </r>
       <r>    1.9468    1.0000 </r>
       <r>    1.9468    1.0000 </r>
       <r>    1.9469    1.0000 </r>
       <r>    1.9469    1.0000 </r>
       <r>    1.9469    1.0000 </r>
       <r>    1.9469    1.0000 </r>
       <r>    1.9476    1.0000 </r>
       <r>    1.9476    1.0000 </r>
       <r>    1.9478    1.0000 </r>
       <r>    2.0964    1.0000 </r>
       <r>    2.0975    1.0000 </r>
       <r>    2.0975    1.0000 </r>
       <r>    2.0975    1.0000 </r>
       <r>    2.0976    1.0000 </r>
       <r>    2.0986    1.0000 </r>
       <r>    2.1515    1.0000 </r>
       <r>    2.1518    1.0000 </r>
       <r>    2.1524    1.0000 </r>
       <r>    2.1533    1.0000 </r>
       <r>    2.1533    1.0000 </r>
       <r>    2.1534    1.0000 </r>
       <r>    2.1534    1.0000 </r>
       <r>    2.1534    1.0000 </r>
       <r>    2.1534    1.0000 </r>
       <r>    2.1535    1.0000 </r>
       <r>    2.1535    1.0000 </r>
       <r>    2.1535    1.0000 </r>
       <r>    2.1535    1.0000 </r>
       <r>    2.1535    1.0000 </r>
       <r>    2.1535    1.0000 </r>
       <r>    2.1536    1.0000 </r>
       <r>    2.1536    1.0000 </r>
       <r>    2.1537    1.0000 </r>
       <r>    2.1537    1.0000 </r>
       <r>    2.1537    1.0000 </r>
       <r>    2.1538    1.0000 </r>
       <r>    2.1546    1.0000 </r>
       <r>    2.1553    1.0000 </r>
       <r>    2.1557    1.0000 </r>
       <r>    2.8214    1.0000 </r>
       <r>    2.8218    1.0000 </r>
       <r>    2.8218    1.0000 </r>
       <r>    2.8218    1.0000 </r>
       <r>    2.8219    1.0000 </r>
       <r>    2.8223    1.0000 </r>
       <r>    3.4536    1.0000 </r>
       <r>    3.4551    1.0000 </r>
       <r>    3.4558    1.0000 </r>
       <r>    3.4558    1.0000 </r>
       <r>    3.4561    1.0000 </r>
       <r>    3.4561    1.0000 </r>
       <r>    3.4562    1.0000 </r>
       <r>    3.4562    1.0000 </r>
       <r>    3.4562    1.0000 </r>
       <r>    3.4562    1.0000 </r>
       <r>    3.4562    1.0000 </r>
       <r>    3.4562    1.0000 </r>
       <r>    3.4563    1.0000 </r>
       <r>    3.4563    1.0000 </r>
       <r>    3.4563    1.0000 </r>
       <r>    3.4563    1.0000 </r>
       <r>    3.4563    1.0000 </r>
       <r>    3.4563    1.0000 </r>
       <r>    3.4564    1.0000 </r>
       <r>    3.4564    1.0000 </r>
       <r>    3.4567    1.0000 </r>
       <r>    3.4567    1.0000 </r>
       <r>    3.4574    1.0000 </r>
       <r>    3.4589    1.0000 </r>
       <r>    3.7657    1.0000 </r>
       <r>    3.7669    1.0000 </r>
       <r>    3.7671    1.0000 </r>
       <r>    3.7673    1.0000 </r>
       <r>    3.7673    1.0000 </r>
       <r>    3.7673    1.0000 </r>
       <r>    3.7673    1.0000 </r>
       <r>    3.7673    1.0000 </r>
       <r>    3.7674    1.0000 </r>
       <r>    3.7676    1.0000 </r>
       <r>    3.7677    1.0000 </r>
       <r>    3.7690    1.0000 </r>
       <r>    4.3119    1.0000 </r>
       <r>    4.3129    1.0000 </r>
       <r>    4.3135    1.0000 </r>
       <r>    4.3135    1.0000 </r>
       <r>    4.3135    1.0000 </r>
       <r>    4.3136    1.0000 </r>
       <r>    4.3136    1.0000 </r>
       <r>    4.3137    1.0000 </r>
       <r>    4.3138    1.0000 </r>
       <r>    4.3138    1.0000 </r>
       <r>    4.3143    1.0000 </r>
       <r>    4.3154    1.0000 </r>
       <r>    4.4362    1.0000 </r>
       <r>    4.4371    1.0000 </r>
       <r>    4.4373    1.0000 </r>
       <r>    4.4373    1.0000 </r>
       <r>    4.4375    1.0000 </r>
       <r>    4.4375    1.0000 </r>
       <r>    4.4378    1.0000 </r>
       <r>    4.4388    1.0000 </r>
       <r>    4.8677    1.0000 </r>
       <r>    4.8703    1.0000 </r>
       <r>    4.8705    1.0000 </r>
       <r>    4.8705    1.0000 </r>
       <r>    4.8707    1.0000 </r>
       <r>    4.8707    1.0000 </r>
       <r>    4.8708    1.0000 </r>
       <r>    4.8708    1.0000 </r>
       <r>    4.8708    1.0000 </r>
       <r>    4.8708    1.0000 </r>
       <r>    4.8709    1.0000 </r>
       <r>    4.8709    1.0000 </r>
       <r>    4.8711    1.0000 </r>
       <r>    4.8711    1.0000 </r>
       <r>    4.8713    1.0000 </r>
       <r>    4.8740    1.0000 </r>
       <r>    5.6151    1.0000 </r>
       <r>    5.6158    1.0000 </r>
       <r>    5.6165    1.0000 </r>
       <r>    6.3669    0.0000 </r>
       <r>    6.3672    0.0000 </r>
       <r>    6.3676    0.0000 </r>
       <r>    6.3677    0.0000 </r>
       <r>    6.3680    0.0000 </r>
       <r>    6.3684    0.0000 </r>
       <r>    6.7668    0.0000 </r>
       <r>    6.7672    0.0000 </r>
       <r>    6.7676    0.0000 </r>
       <r>    6.7676    0.0000 </r>
       <r>    6.7680    0.0000 </r>
       <r>    6.7684    0.0000 </r>
       <r>    7.0824    0.0000 </r>
       <r>    7.0826    0.0000 </r>
       <r>    7.0826    0.0000 </r>
       <r>    7.0828    0.0000 </r>
       <r>    7.1550    0.0000 </r>
       <r>    7.1559    0.0000 </r>
       <r>    7.1574    0.0000 </r>
       <r>    7.1577    0.0000 </r>
       <r>    7.1577    0.0000 </r>
       <r>    7.1578    0.0000 </r>
       <r>    7.1578    0.0000 </r>
       <r>    7.1579    0.0000 </r>
       <r>    7.1579    0.0000 </r>
       <r>    7.1579    0.0000 </r>
       <r>    7.1579    0.0000 </r>
       <r>    7.1579    0.0000 </r>
       <r>    7.1579    0.0000 </r>
       <r>    7.1579    0.0000 </r>
       <r>    7.1580    0.0000 </r>
       <r>    7.1580    0.0000 </r>
       <r>    7.1580    0.0000 </r>
       <r>    7.1580    0.0000 </r>
       <r>    7.1581    0.0000 </r>
       <r>    7.1581    0.0000 </r>
       <r>    7.1582    0.0000 </r>
       <r>    7.1585    0.0000 </r>
       <r>    7.1599    0.0000 </r>
       <r>    7.1608    0.0000 </r>
       <r>    7.5746    0.0000 </r>
       <r>    7.5751    0.0000 </r>
       <r>    7.5754    0.0000 </r>
       <r>    7.5754    0.0000 </r>
       <r>    7.5754    0.0000 </r>
       <r>    7.5754    0.0000 </r>
       <r>    7.5756    0.0000 </r>
       <r>    7.5761    0.0000 </r>
       <r>    8.0526    0.0000 </r>
       <r>    8.0529    0.0000 </r>
       <r>    8.0536    0.0000 </r>
       <r>    8.0538    0.0000 </r>
       <r>    8.0539    0.0000 </r>
       <r>    8.0539    0.0000 </r>
       <r>    8.0539    0.0000 </r>
       <r>    8.0540    0.0000 </r>
       <r>    8.0540    0.0000 </r>
       <r>    8.0542    0.0000 </r>
       <r>    8.0549    0.0000 </r>
       <r>    8.0552    0.0000 </r>
       <r>    8.1724    0.0000 </r>
       <r>    8.1728    0.0000 </r>
       <r>    8.1733    0.0000 </r>
       <r>    8.7513    0.0000 </r>
       <r>    8.7518    0.0000 </r>
       <r>    8.7520    0.0000 </r>
      </set>
      <set comment="kpoint 2">
       <r>   -6.1093    1.0000 </r>
       <r>   -5.8440    1.0000 </r>
       <r>   -5.4957    1.0000 </r>
       <r>   -5.4954    1.0000 </r>
       <r>   -5.4951    1.0000 </r>
       <r>   -5.4024    1.0000 </r>
       <r>   -5.4021    1.0000 </r>
       <r>   -5.4018    1.0000 </r>
       <r>   -5.1607    1.0000 </r>
       <r>   -5.1604    1.0000 </r>
       <r>   -5.1601    1.0000 </r>
       <r>   -4.8486    1.0000 </r>
       <r>   -4.7457    1.0000 </r>
       <r>   -4.7454    1.0000 </r>
       <r>   -4.7451    1.0000 </r>
       <r>   -4.7080    1.0000 </r>
       <r>   -4.7077    1.0000 </r>
       <r>   -4.7074    1.0000 </r>
       <r>   -4.2433    1.0000 </r>
       <r>   -4.1442    1.0000 </r>
       <r>   -4.1440    1.0000 </r>
       <r>   -4.1437    1.0000 </r>
       <r>   -4.1195    1.0000 </r>
       <r>   -4.1187    1.0000 </r>
       <r>   -4.1186    1.0000 </r>
       <r>   -4.1186    1.0000 </r>
       <r>   -4.1184    1.0000 </r>
       <r>   -4.1179    1.0000 </r>
       <r>   -3.8953    1.0000 </r>
       <r>   -3.8944    1.0000 </r>
       <r>   -3.8943    1.0000 </r>
       <r>   -3.8943    1.0000 </r>
       <r>   -3.8942    1.0000 </r>
       <r>   -3.8937    1.0000 </r>
       <r>   -3.8829    1.0000 </r>
       <r>   -3.8824    1.0000 </r>
       <r>   -3.8821    1.0000 </r>
       <r>   -3.7610    1.0000 </r>
       <r>   -3.7604    1.0000 </r>
       <r>   -3.7601    1.0000 </r>
       <r>   -3.5871    1.0000 </r>
       <r>   -3.5870    1.0000 </r>
       <r>   -3.5865    1.0000 </r>
       <r>   -3.2214    1.0000 </r>
       <r>   -3.2213    1.0000 </r>
       <r>   -3.2206    1.0000 </r>
       <r>   -3.1893    1.0000 </r>
       <r>   -3.1888    1.0000 </r>
       <r>   -3.1885    1.0000 </r>
       <r>   -3.0658    1.0000 </r>
       <r>   -3.0650    1.0000 </r>
       <r>   -3.0650    1.0000 </r>
       <r>   -3.0649    1.0000 </r>
       <r>   -3.0648    1.0000 </r>
       <r>   -3.0642    1.0000 </r>
       <r>   -2.7173    1.0000 </r>
       <r>   -2.7168    1.0000 </r>
       <r>   -2.7165    1.0000 </r>
       <r>   -2.5268    1.0000 </r>
       <r>   -2.5260    1.0000 </r>
       <r>   -2.5259    1.0000 </r>
       <r>   -2.5259    1.0000 </r>
       <r>   -2.5258    1.0000 </r>
       <r>   -2.5252    1.0000 </r>
       <r>   -1.4778    1.0000 </r>
       <r>   -1.4772    1.0000 </r>
       <r>   -1.4770    1.0000 </r>
       <r>   -1.4770    1.0000 </r>
       <r>   -1.4769    1.0000 </r>
       <r>   -1.4767    1.0000 </r>
       <r>   -1.4765    1.0000 </r>
       <r>   -1.4764    1.0000 </r>
       <r>   -1.4754    1.0000 </r>
       <r>   -1.1543    1.0000 </r>
       <r>   -1.1542    1.0000 </r>
       <r>   -1.1535    1.0000 </r>
       <r>   -1.1111    1.0000 </r>
       <r>   -1.1093    1.0000 </r>
       <r>   -1.1091    1.0000 </r>
       <r>   -1.0641    1.0000 </r>
       <r>   -1.0639    1.0000 </r>
       <r>   -1.0637    1.0000 </r>
       <r>   -1.0637    1.0000 </r>
       <r>   -1.0636    1.0000 </r>
       <r>   -1.0628    1.0000 </r>
       <r>   -0.9079    1.0000 </r>
       <r>   -0.9078    1.0000 </r>
       <r>   -0.9072    1.0000 </r>
       <r>   -0.9016    1.0000 </r>
       <r>   -0.9014    1.0000 </r>
       <r>   -0.9008    1.0000 </r>
       <r>   -0.7608    1.0000 </r>
       <r>   -0.6304    1.0000 </r>
       <r>   -0.6289    1.0000 </r>
       <r>   -0.6288    1.0000 </r>
       <r>   -0.3527    1.0000 </r>
       <r>   -0.3527    1.0000 </r>
       <r>   -0.3525    1.0000 </r>
       <r>   -0.3524    1.0000 </r>
       <r>   -0.3524    1.0000 </r>
       <r>   -0.3514    1.0000 </r>
       <r>   -0.0031    1.0000 </r>
       <r>   -0.0031    1.0000 </r>
       <r>   -0.0030    1.0000 </r>
       <r>   -0.0029    1.0000 </r>
       <r>   -0.0028    1.0000 </r>
       <r>   -0.0017    1.0000 </r>
       <r>    0.1951    1.0000 </r>
       <r>    0.1963    1.0000 </r>
       <r>    0.1966    1.0000 </r>
       <r>    0.3461    1.0000 </r>
       <r>    0.7978    1.0000 </r>
       <r>    0.7984    1.0000 </r>
       <r>    0.7987    1.0000 </r>
       <r>    1.2026    1.0000 </r>
       <r>    1.2036    1.0000 </r>
       <r>    1.2040    1.0000 </r>
       <r>    1.2591    1.0000 </r>
       <r>    1.2593    1.0000 </r>
       <r>    1.2597    1.0000 </r>
       <r>    1.6267    1.0000 </r>
       <r>    1.6269    1.0000 </r>
       <r>    1.6271    1.0000 </r>
       <r>    1.6272    1.0000 </r>
       <r>    1.6274    1.0000 </r>
       <r>    1.6276    1.0000 </r>
       <r>    1.6847    1.0000 </r>
       <r>    1.6850    1.0000 </r>
       <r>    1.6853    1.0000 </r>
       <r>    1.7540    1.0000 </r>
       <r>    1.7541    1.0000 </r>
       <r>    1.7543    1.0000 </r>
       <r>    1.7545    1.0000 </r>
       <r>    1.7548    1.0000 </r>
       <r>    1.7550    1.0000 </r>
       <r>    1.7981    1.0000 </r>
       <r>    1.7985    1.0000 </r>
       <r>    1.7988    1.0000 </r>
       <r>    2.0662    1.0000 </r>
       <r>    2.0666    1.0000 </r>
       <r>    2.0667    1.0000 </r>
       <r>    2.1746    1.0000 </r>
       <r>    2.1749    1.0000 </r>
       <r>    2.1750    1.0000 </r>
       <r>    2.1751    1.0000 </r>
       <r>    2.1757    1.0000 </r>
       <r>    2.1757    1.0000 </r>
       <r>    2.2150    1.0000 </r>
       <r>    2.2150    1.0000 </r>
       <r>    2.2155    1.0000 </r>
       <r>    2.3892    1.0000 </r>
       <r>    2.3894    1.0000 </r>
       <r>    2.3898    1.0000 </r>
       <r>    2.3898    1.0000 </r>
       <r>    2.3900    1.0000 </r>
       <r>    2.3901    1.0000 </r>
       <r>    2.4531    1.0000 </r>
       <r>    2.4533    1.0000 </r>
       <r>    2.4534    1.0000 </r>
       <r>    2.4534    1.0000 </r>
       <r>    2.4542    1.0000 </r>
       <r>    2.4542    1.0000 </r>
       <r>    2.4966    1.0000 </r>
       <r>    2.4967    1.0000 </r>
       <r>    2.4972    1.0000 </r>
       <r>    2.5102    1.0000 </r>
       <r>    2.5106    1.0000 </r>
       <r>    2.5107    1.0000 </r>
       <r>    2.6902    1.0000 </r>
       <r>    2.6905    1.0000 </r>
       <r>    2.6908    1.0000 </r>
       <r>    2.7718    1.0000 </r>
       <r>    2.7721    1.0000 </r>
       <r>    2.7724    1.0000 </r>
       <r>    2.8837    1.0000 </r>
       <r>    2.8844    1.0000 </r>
       <r>    2.8846    1.0000 </r>
       <r>    2.8963    1.0000 </r>
       <r>    2.8963    1.0000 </r>
       <r>    2.8966    1.0000 </r>
       <r>    3.0525    1.0000 </r>
       <r>    3.0529    1.0000 </r>
       <r>    3.0533    1.0000 </r>
       <r>    3.0533    1.0000 </r>
       <r>    3.0535    1.0000 </r>
       <r>    3.0536    1.0000 </r>
       <r>    3.1142    1.0000 </r>
       <r>    3.1143    1.0000 </r>
       <r>    3.1146    1.0000 </r>
       <r>    3.2524    1.0000 </r>
       <r>    3.3106    1.0000 </r>
       <r>    3.3107    1.0000 </r>
       <r>    3.3111    1.0000 </r>
       <r>    3.4190    1.0000 </r>
       <r>    3.4192    1.0000 </r>
       <r>    3.4195    1.0000 </r>
       <r>    3.5249    1.0000 </r>
       <r>    3.5251    1.0000 </r>
       <r>    3.5254    1.0000 </r>
       <r>    3.5345    1.0000 </r>
       <r>    3.5357    1.0000 </r>
       <r>    3.5360    1.0000 </r>
       <r>    3.5360    1.0000 </r>
       <r>    3.5362    1.0000 </r>
       <r>    3.5363    1.0000 </r>
       <r>    3.6320    1.0000 </r>
       <r>    3.6321    1.0000 </r>
       <r>    3.6325    1.0000 </r>
       <r>    3.8594    1.0000 </r>
       <r>    3.8603    1.0000 </r>
       <r>    3.8605    1.0000 </r>
       <r>    3.8754    1.0000 </r>
       <r>    3.8754    1.0000 </r>
       <r>    3.8758    1.0000 </r>
       <r>    3.9301    1.0000 </r>
       <r>    3.9302    1.0000 </r>
       <r>    3.9306    1.0000 </r>
       <r>    3.9564    1.0000 </r>
       <r>    3.9572    1.0000 </r>
       <r>    3.9574    1.0000 </r>
       <r>    3.9941    1.0000 </r>
       <r>    3.9953    1.0000 </r>
       <r>    3.9958    1.0000 </r>
       <r>    3.9958    1.0000 </r>
       <r>    3.9958    1.0000 </r>
       <r>    3.9959    1.0000 </r>
       <r>    4.1023    1.0000 </r>
       <r>    4.1036    1.0000 </r>
       <r>    4.1036    1.0000 </r>
       <r>    4.1227    1.0000 </r>
       <r>    4.1228    1.0000 </r>
       <r>    4.1233    1.0000 </r>
       <r>    4.2654    1.0000 </r>
       <r>    4.2656    1.0000 </r>
       <r>    4.2660    1.0000 </r>
       <r>    4.4866    1.0000 </r>
       <r>    4.4871    1.0000 </r>
       <r>    4.5334    1.0000 </r>
       <r>    4.5335    1.0000 </r>
       <r>    4.5340    1.0000 </r>
       <r>    4.6333    1.0000 </r>
       <r>    4.6338    1.0000 </r>
       <r>    4.6987    1.0000 </r>
       <r>    4.7001    1.0000 </r>
       <r>    4.7002    1.0000 </r>
       <r>    4.7030    1.0000 </r>
       <r>    4.7031    1.0000 </r>
       <r>    4.7038    1.0000 </r>
       <r>    4.7577    1.0000 </r>
       <r>    4.9437    1.0000 </r>
       <r>    4.9438    1.0000 </r>
       <r>    4.9445    1.0000 </r>
       <r>    5.1750    1.0000 </r>
       <r>    5.1756    1.0000 </r>
       <r>    5.4755    1.0000 </r>
       <r>    5.4762    1.0000 </r>
       <r>    6.4276    0.0000 </r>
       <r>    6.4280    0.0000 </r>
       <r>    6.4282    0.0000 </r>
       <r>    6.7120    0.0000 </r>
       <r>    6.7125    0.0000 </r>
       <r>    6.7126    0.0000 </r>
       <r>    6.8501    0.0000 </r>
       <r>    6.8506    0.0000 </r>
       <r>    6.8507    0.0000 </r>
       <r>    6.9871    0.0000 </r>
       <r>    6.9874    0.0000 </r>
       <r>    6.9879    0.0000 </r>
       <r>    7.0695    0.0000 </r>
       <r>    7.0699    0.0000 </r>
       <r>    7.0702    0.0000 </r>
       <r>    7.1400    0.0000 </r>
       <r>    7.3087    0.0000 </r>
       <r>    7.3316    0.0000 </r>
       <r>    7.3321    0.0000 </r>
       <r>    7.3323    0.0000 </r>
       <r>    7.3487    0.0000 </r>
       <r>    7.3490    0.0000 </r>
       <r>    7.3494    0.0000 </r>
       <r>    7.5111    0.0000 </r>
       <r>    7.5112    0.0000 </r>
       <r>    7.5121    0.0000 </r>
       <r>    7.5121    0.0000 </r>
       <r>    7.5122    0.0000 </r>
       <r>    7.5125    0.0000 </r>
       <r>    7.6016    0.0000 </r>
       <r>    7.6017    0.0000 </r>
       <r>    7.6020    0.0000 </r>
       <r>    7.6453    0.0000 </r>
       <r>    7.6457    0.0000 </r>
       <r>    7.6459    0.0000 </r>
       <r>    7.6557    0.0000 </r>
       <r>    7.6560    0.0000 </r>
       <r>    7.6562    0.0000 </r>
       <r>    7.8633    0.0000 </r>
       <r>    7.8634    0.0000 </r>
       <r>    7.8642    0.0000 </r>
       <r>    7.8643    0.0000 </r>
       <r>    7.8643    0.0000 </r>
       <r>    7.8651    0.0000 </r>
       <r>    7.9020    0.0000 </r>
       <r>    7.9811    0.0000 </r>
       <r>    7.9813    0.0000 </r>
       <r>    7.9814    0.0000 </r>
       <r>    8.0197    0.0000 </r>
       <r>    8.0201    0.0000 </r>
       <r>    8.0203    0.0000 </r>
       <r>    8.1806    0.0000 </r>
       <r>    8.3379    0.0000 </r>
       <r>    8.3382    0.0000 </r>
       <r>    8.3387    0.0000 </r>
       <r>    8.3565    0.0000 </r>
       <r>    8.3568    0.0000 </r>
       <r>    8.3571    0.0000 </r>
       <r>    8.3792    0.0000 </r>
       <r>    8.3796    0.0000 </r>
       <r>    8.4075    0.0000 </r>
       <r>    8.4077    0.0000 </r>
       <r>    8.4082    0.0000 </r>
       <r>    8.5734    0.0000 </r>
       <r>    8.5775    0.0000 </r>
       <r>    8.5886    0.0000 </r>
      </set>
      <set comment="kpoint 3">
       <r>   -6.1093    1.0000 </r>
       <r>   -5.8441    1.0000 </r>
       <r>   -5.4959    1.0000 </r>
       <r>   -5.4954    1.0000 </r>
       <r>   -5.4950    1.0000 </r>
       <r>   -5.4025    1.0000 </r>
       <r>   -5.4021    1.0000 </r>
       <r>   -5.4016    1.0000 </r>
       <r>   -5.1609    1.0000 </r>
       <r>   -5.1604    1.0000 </r>
       <r>   -5.1600    1.0000 </r>
       <r>   -4.8487    1.0000 </r>
       <r>   -4.7458    1.0000 </r>
       <r>   -4.7454    1.0000 </r>
       <r>   -4.7449    1.0000 </r>
       <r>   -4.7082    1.0000 </r>
       <r>   -4.7077    1.0000 </r>
       <r>   -4.7072    1.0000 </r>
       <r>   -4.2435    1.0000 </r>
       <r>   -4.1445    1.0000 </r>
       <r>   -4.1440    1.0000 </r>
       <r>   -4.1435    1.0000 </r>
       <r>   -4.1197    1.0000 </r>
       <r>   -4.1186    1.0000 </r>
       <r>   -4.1186    1.0000 </r>
       <r>   -4.1185    1.0000 </r>
       <r>   -4.1185    1.0000 </r>
       <r>   -4.1174    1.0000 </r>
       <r>   -3.8955    1.0000 </r>
       <r>   -3.8944    1.0000 </r>
       <r>   -3.8943    1.0000 </r>
       <r>   -3.8943    1.0000 </r>
       <r>   -3.8942    1.0000 </r>
       <r>   -3.8932    1.0000 </r>
       <r>   -3.8829    1.0000 </r>
       <r>   -3.8824    1.0000 </r>
       <r>   -3.8819    1.0000 </r>
       <r>   -3.7609    1.0000 </r>
       <r>   -3.7604    1.0000 </r>
       <r>   -3.7599    1.0000 </r>
       <r>   -3.5875    1.0000 </r>
       <r>   -3.5870    1.0000 </r>
       <r>   -3.5865    1.0000 </r>
       <r>   -3.2219    1.0000 </r>
       <r>   -3.2214    1.0000 </r>
       <r>   -3.2209    1.0000 </r>
       <r>   -3.1894    1.0000 </r>
       <r>   -3.1888    1.0000 </r>
       <r>   -3.1883    1.0000 </r>
       <r>   -3.0660    1.0000 </r>
       <r>   -3.0650    1.0000 </r>
       <r>   -3.0650    1.0000 </r>
       <r>   -3.0649    1.0000 </r>
       <r>   -3.0649    1.0000 </r>
       <r>   -3.0638    1.0000 </r>
       <r>   -2.7174    1.0000 </r>
       <r>   -2.7168    1.0000 </r>
       <r>   -2.7163    1.0000 </r>
       <r>   -2.5270    1.0000 </r>
       <r>   -2.5260    1.0000 </r>
       <r>   -2.5259    1.0000 </r>
       <r>   -2.5259    1.0000 </r>
       <r>   -2.5258    1.0000 </r>
       <r>   -2.5248    1.0000 </r>
       <r>   -1.4786    1.0000 </r>
       <r>   -1.4771    1.0000 </r>
       <r>   -1.4770    1.0000 </r>
       <r>   -1.4770    1.0000 </r>
       <r>   -1.4769    1.0000 </r>
       <r>   -1.4766    1.0000 </r>
       <r>   -1.4766    1.0000 </r>
       <r>   -1.4764    1.0000 </r>
       <r>   -1.4750    1.0000 </r>
       <r>   -1.1548    1.0000 </r>
       <r>   -1.1542    1.0000 </r>
       <r>   -1.1536    1.0000 </r>
       <r>   -1.1094    1.0000 </r>
       <r>   -1.1093    1.0000 </r>
       <r>   -1.1091    1.0000 </r>
       <r>   -1.0649    1.0000 </r>
       <r>   -1.0638    1.0000 </r>
       <r>   -1.0637    1.0000 </r>
       <r>   -1.0637    1.0000 </r>
       <r>   -1.0636    1.0000 </r>
       <r>   -1.0625    1.0000 </r>
       <r>   -0.9086    1.0000 </r>
       <r>   -0.9079    1.0000 </r>
       <r>   -0.9073    1.0000 </r>
       <r>   -0.9020    1.0000 </r>
       <r>   -0.9014    1.0000 </r>
       <r>   -0.9007    1.0000 </r>
       <r>   -0.7604    1.0000 </r>
       <r>   -0.6292    1.0000 </r>
       <r>   -0.6290    1.0000 </r>
       <r>   -0.6287    1.0000 </r>
       <r>   -0.3538    1.0000 </r>
       <r>   -0.3527    1.0000 </r>
       <r>   -0.3525    1.0000 </r>
       <r>   -0.3525    1.0000 </r>
       <r>   -0.3523    1.0000 </r>
       <r>   -0.3512    1.0000 </r>
       <r>   -0.0042    1.0000 </r>
       <r>   -0.0031    1.0000 </r>
       <r>   -0.0030    1.0000 </r>
       <r>   -0.0029    1.0000 </r>
       <r>   -0.0028    1.0000 </r>
       <r>   -0.0017    1.0000 </r>
       <r>    0.1960    1.0000 </r>
       <r>    0.1963    1.0000 </r>
       <r>    0.1967    1.0000 </r>
       <r>    0.3465    1.0000 </r>
       <r>    0.7979    1.0000 </r>
       <r>    0.7983    1.0000 </r>
       <r>    0.7988    1.0000 </r>
       <r>    1.2031    1.0000 </r>
       <r>    1.2036    1.0000 </r>
       <r>    1.2041    1.0000 </r>
       <r>    1.2589    1.0000 </r>
       <r>    1.2593    1.0000 </r>
       <r>    1.2598    1.0000 </r>
       <r>    1.6267    1.0000 </r>
       <r>    1.6268    1.0000 </r>
       <r>    1.6271    1.0000 </r>
       <r>    1.6272    1.0000 </r>
       <r>    1.6275    1.0000 </r>
       <r>    1.6276    1.0000 </r>
       <r>    1.6846    1.0000 </r>
       <r>    1.6849    1.0000 </r>
       <r>    1.6852    1.0000 </r>
       <r>    1.7539    1.0000 </r>
       <r>    1.7540    1.0000 </r>
       <r>    1.7544    1.0000 </r>
       <r>    1.7545    1.0000 </r>
       <r>    1.7548    1.0000 </r>
       <r>    1.7550    1.0000 </r>
       <r>    1.7980    1.0000 </r>
       <r>    1.7983    1.0000 </r>
       <r>    1.7987    1.0000 </r>
       <r>    2.0665    1.0000 </r>
       <r>    2.0668    1.0000 </r>
       <r>    2.0670    1.0000 </r>
       <r>    2.1745    1.0000 </r>
       <r>    2.1747    1.0000 </r>
       <r>    2.1751    1.0000 </r>
       <r>    2.1751    1.0000 </r>
       <r>    2.1754    1.0000 </r>
       <r>    2.1757    1.0000 </r>
       <r>    2.2145    1.0000 </r>
       <r>    2.2150    1.0000 </r>
       <r>    2.2154    1.0000 </r>
       <r>    2.3890    1.0000 </r>
       <r>    2.3895    1.0000 </r>
       <r>    2.3897    1.0000 </r>
       <r>    2.3898    1.0000 </r>
       <r>    2.3900    1.0000 </r>
       <r>    2.3904    1.0000 </r>
       <r>    2.4527    1.0000 </r>
       <r>    2.4529    1.0000 </r>
       <r>    2.4533    1.0000 </r>
       <r>    2.4534    1.0000 </r>
       <r>    2.4538    1.0000 </r>
       <r>    2.4541    1.0000 </r>
       <r>    2.4961    1.0000 </r>
       <r>    2.4966    1.0000 </r>
       <r>    2.4972    1.0000 </r>
       <r>    2.5104    1.0000 </r>
       <r>    2.5107    1.0000 </r>
       <r>    2.5109    1.0000 </r>
       <r>    2.6899    1.0000 </r>
       <r>    2.6903    1.0000 </r>
       <r>    2.6908    1.0000 </r>
       <r>    2.7719    1.0000 </r>
       <r>    2.7722    1.0000 </r>
       <r>    2.7726    1.0000 </r>
       <r>    2.8843    1.0000 </r>
       <r>    2.8846    1.0000 </r>
       <r>    2.8850    1.0000 </r>
       <r>    2.8960    1.0000 </r>
       <r>    2.8963    1.0000 </r>
       <r>    2.8966    1.0000 </r>
       <r>    3.0524    1.0000 </r>
       <r>    3.0530    1.0000 </r>
       <r>    3.0532    1.0000 </r>
       <r>    3.0532    1.0000 </r>
       <r>    3.0535    1.0000 </r>
       <r>    3.0540    1.0000 </r>
       <r>    3.1139    1.0000 </r>
       <r>    3.1142    1.0000 </r>
       <r>    3.1145    1.0000 </r>
       <r>    3.2528    1.0000 </r>
       <r>    3.3102    1.0000 </r>
       <r>    3.3107    1.0000 </r>
       <r>    3.3111    1.0000 </r>
       <r>    3.4187    1.0000 </r>
       <r>    3.4191    1.0000 </r>
       <r>    3.4195    1.0000 </r>
       <r>    3.5246    1.0000 </r>
       <r>    3.5250    1.0000 </r>
       <r>    3.5254    1.0000 </r>
       <r>    3.5356    1.0000 </r>
       <r>    3.5358    1.0000 </r>
       <r>    3.5361    1.0000 </r>
       <r>    3.5361    1.0000 </r>
       <r>    3.5365    1.0000 </r>
       <r>    3.5366    1.0000 </r>
       <r>    3.6316    1.0000 </r>
       <r>    3.6321    1.0000 </r>
       <r>    3.6325    1.0000 </r>
       <r>    3.8601    1.0000 </r>
       <r>    3.8605    1.0000 </r>
       <r>    3.8608    1.0000 </r>
       <r>    3.8750    1.0000 </r>
       <r>    3.8753    1.0000 </r>
       <r>    3.8757    1.0000 </r>
       <r>    3.9296    1.0000 </r>
       <r>    3.9301    1.0000 </r>
       <r>    3.9306    1.0000 </r>
       <r>    3.9569    1.0000 </r>
       <r>    3.9573    1.0000 </r>
       <r>    3.9576    1.0000 </r>
       <r>    3.9950    1.0000 </r>
       <r>    3.9954    1.0000 </r>
       <r>    3.9957    1.0000 </r>
       <r>    3.9957    1.0000 </r>
       <r>    3.9960    1.0000 </r>
       <r>    3.9965    1.0000 </r>
       <r>    4.1036    1.0000 </r>
       <r>    4.1037    1.0000 </r>
       <r>    4.1037    1.0000 </r>
       <r>    4.1223    1.0000 </r>
       <r>    4.1227    1.0000 </r>
       <r>    4.1232    1.0000 </r>
       <r>    4.2650    1.0000 </r>
       <r>    4.2654    1.0000 </r>
       <r>    4.2658    1.0000 </r>
       <r>    4.4862    1.0000 </r>
       <r>    4.4872    1.0000 </r>
       <r>    4.5329    1.0000 </r>
       <r>    4.5334    1.0000 </r>
       <r>    4.5339    1.0000 </r>
       <r>    4.6329    1.0000 </r>
       <r>    4.6339    1.0000 </r>
       <r>    4.6999    1.0000 </r>
       <r>    4.7002    1.0000 </r>
       <r>    4.7004    1.0000 </r>
       <r>    4.7025    1.0000 </r>
       <r>    4.7030    1.0000 </r>
       <r>    4.7037    1.0000 </r>
       <r>    4.7582    1.0000 </r>
       <r>    4.9431    1.0000 </r>
       <r>    4.9437    1.0000 </r>
       <r>    4.9443    1.0000 </r>
       <r>    5.1746    1.0000 </r>
       <r>    5.1756    1.0000 </r>
       <r>    5.4750    1.0000 </r>
       <r>    5.4761    1.0000 </r>
       <r>    6.4273    0.0000 </r>
       <r>    6.4277    0.0000 </r>
       <r>    6.4282    0.0000 </r>
       <r>    6.7117    0.0000 </r>
       <r>    6.7122    0.0000 </r>
       <r>    6.7126    0.0000 </r>
       <r>    6.8499    0.0000 </r>
       <r>    6.8505    0.0000 </r>
       <r>    6.8510    0.0000 </r>
       <r>    6.9871    0.0000 </r>
       <r>    6.9876    0.0000 </r>
       <r>    6.9881    0.0000 </r>
       <r>    7.0691    0.0000 </r>
       <r>    7.0697    0.0000 </r>
       <r>    7.0704    0.0000 </r>
       <r>    7.1399    0.0000 </r>
       <r>    7.3086    0.0000 </r>
       <r>    7.3313    0.0000 </r>
       <r>    7.3318    0.0000 </r>
       <r>    7.3324    0.0000 </r>
       <r>    7.3485    0.0000 </r>
       <r>    7.3490    0.0000 </r>
       <r>    7.3494    0.0000 </r>
       <r>    7.5113    0.0000 </r>
       <r>    7.5118    0.0000 </r>
       <r>    7.5120    0.0000 </r>
       <r>    7.5122    0.0000 </r>
       <r>    7.5123    0.0000 </r>
       <r>    7.5129    0.0000 </r>
       <r>    7.6015    0.0000 </r>
       <r>    7.6018    0.0000 </r>
       <r>    7.6021    0.0000 </r>
       <r>    7.6449    0.0000 </r>
       <r>    7.6454    0.0000 </r>
       <r>    7.6460    0.0000 </r>
       <r>    7.6553    0.0000 </r>
       <r>    7.6558    0.0000 </r>
       <r>    7.6563    0.0000 </r>
       <r>    7.8632    0.0000 </r>
       <r>    7.8641    0.0000 </r>
       <r>    7.8642    0.0000 </r>
       <r>    7.8643    0.0000 </r>
       <r>    7.8644    0.0000 </r>
       <r>    7.8652    0.0000 </r>
       <r>    7.9017    0.0000 </r>
       <r>    7.9811    0.0000 </r>
       <r>    7.9813    0.0000 </r>
       <r>    7.9816    0.0000 </r>
       <r>    8.0197    0.0000 </r>
       <r>    8.0201    0.0000 </r>
       <r>    8.0206    0.0000 </r>
       <r>    8.1803    0.0000 </r>
       <r>    8.3379    0.0000 </r>
       <r>    8.3385    0.0000 </r>
       <r>    8.3390    0.0000 </r>
       <r>    8.3561    0.0000 </r>
       <r>    8.3566    0.0000 </r>
       <r>    8.3571    0.0000 </r>
       <r>    8.3792    0.0000 </r>
       <r>    8.3799    0.0000 </r>
       <r>    8.4077    0.0000 </r>
       <r>    8.4079    0.0000 </r>
       <r>    8.4080    0.0000 </r>
       <r>    8.5740    0.0000 </r>
       <r>    8.5776    0.0000 </r>
       <r>    8.5940    0.0000 </r>
      </set>
      <set comment="kpoint 4">
       <r>   -6.1093    1.0000 </r>
       <r>   -5.8441    1.0000 </r>
       <r>   -5.4957    1.0000 </r>
       <r>   -5.4954    1.0000 </r>
       <r>   -5.4951    1.0000 </r>
       <r>   -5.4023    1.0000 </r>
       <r>   -5.4021    1.0000 </r>
       <r>   -5.4018    1.0000 </r>
       <r>   -5.1607    1.0000 </r>
       <r>   -5.1604    1.0000 </r>
       <r>   -5.1601    1.0000 </r>
       <r>   -4.8488    1.0000 </r>
       <r>   -4.7457    1.0000 </r>
       <r>   -4.7454    1.0000 </r>
       <r>   -4.7451    1.0000 </r>
       <r>   -4.7080    1.0000 </r>
       <r>   -4.7077    1.0000 </r>
       <r>   -4.7075    1.0000 </r>
       <r>   -4.2437    1.0000 </r>
       <r>   -4.1444    1.0000 </r>
       <r>   -4.1440    1.0000 </r>
       <r>   -4.1438    1.0000 </r>
       <r>   -4.1192    1.0000 </r>
       <r>   -4.1187    1.0000 </r>
       <r>   -4.1186    1.0000 </r>
       <r>   -4.1185    1.0000 </r>
       <r>   -4.1185    1.0000 </r>
       <r>   -4.1176    1.0000 </r>
       <r>   -3.8950    1.0000 </r>
       <r>   -3.8944    1.0000 </r>
       <r>   -3.8943    1.0000 </r>
       <r>   -3.8943    1.0000 </r>
       <r>   -3.8942    1.0000 </r>
       <r>   -3.8934    1.0000 </r>
       <r>   -3.8827    1.0000 </r>
       <r>   -3.8824    1.0000 </r>
       <r>   -3.8818    1.0000 </r>
       <r>   -3.7607    1.0000 </r>
       <r>   -3.7604    1.0000 </r>
       <r>   -3.7599    1.0000 </r>
       <r>   -3.5875    1.0000 </r>
       <r>   -3.5870    1.0000 </r>
       <r>   -3.5869    1.0000 </r>
       <r>   -3.2221    1.0000 </r>
       <r>   -3.2214    1.0000 </r>
       <r>   -3.2214    1.0000 </r>
       <r>   -3.1892    1.0000 </r>
       <r>   -3.1888    1.0000 </r>
       <r>   -3.1883    1.0000 </r>
       <r>   -3.0656    1.0000 </r>
       <r>   -3.0651    1.0000 </r>
       <r>   -3.0649    1.0000 </r>
       <r>   -3.0649    1.0000 </r>
       <r>   -3.0648    1.0000 </r>
       <r>   -3.0640    1.0000 </r>
       <r>   -2.7172    1.0000 </r>
       <r>   -2.7168    1.0000 </r>
       <r>   -2.7164    1.0000 </r>
       <r>   -2.5266    1.0000 </r>
       <r>   -2.5260    1.0000 </r>
       <r>   -2.5259    1.0000 </r>
       <r>   -2.5259    1.0000 </r>
       <r>   -2.5258    1.0000 </r>
       <r>   -2.5250    1.0000 </r>
       <r>   -1.4782    1.0000 </r>
       <r>   -1.4771    1.0000 </r>
       <r>   -1.4770    1.0000 </r>
       <r>   -1.4770    1.0000 </r>
       <r>   -1.4769    1.0000 </r>
       <r>   -1.4767    1.0000 </r>
       <r>   -1.4765    1.0000 </r>
       <r>   -1.4764    1.0000 </r>
       <r>   -1.4758    1.0000 </r>
       <r>   -1.1548    1.0000 </r>
       <r>   -1.1542    1.0000 </r>
       <r>   -1.1541    1.0000 </r>
       <r>   -1.1095    1.0000 </r>
       <r>   -1.1093    1.0000 </r>
       <r>   -1.1076    1.0000 </r>
       <r>   -1.0646    1.0000 </r>
       <r>   -1.0638    1.0000 </r>
       <r>   -1.0637    1.0000 </r>
       <r>   -1.0637    1.0000 </r>
       <r>   -1.0635    1.0000 </r>
       <r>   -1.0632    1.0000 </r>
       <r>   -0.9086    1.0000 </r>
       <r>   -0.9079    1.0000 </r>
       <r>   -0.9078    1.0000 </r>
       <r>   -0.9019    1.0000 </r>
       <r>   -0.9015    1.0000 </r>
       <r>   -0.9013    1.0000 </r>
       <r>   -0.7599    1.0000 </r>
       <r>   -0.6292    1.0000 </r>
       <r>   -0.6290    1.0000 </r>
       <r>   -0.6275    1.0000 </r>
       <r>   -0.3536    1.0000 </r>
       <r>   -0.3526    1.0000 </r>
       <r>   -0.3526    1.0000 </r>
       <r>   -0.3525    1.0000 </r>
       <r>   -0.3523    1.0000 </r>
       <r>   -0.3523    1.0000 </r>
       <r>   -0.0042    1.0000 </r>
       <r>   -0.0031    1.0000 </r>
       <r>   -0.0031    1.0000 </r>
       <r>   -0.0029    1.0000 </r>
       <r>   -0.0028    1.0000 </r>
       <r>   -0.0028    1.0000 </r>
       <r>    0.1961    1.0000 </r>
       <r>    0.1963    1.0000 </r>
       <r>    0.1976    1.0000 </r>
       <r>    0.3469    1.0000 </r>
       <r>    0.7980    1.0000 </r>
       <r>    0.7983    1.0000 </r>
       <r>    0.7989    1.0000 </r>
       <r>    1.2033    1.0000 </r>
       <r>    1.2036    1.0000 </r>
       <r>    1.2046    1.0000 </r>
       <r>    1.2589    1.0000 </r>
       <r>    1.2593    1.0000 </r>
       <r>    1.2596    1.0000 </r>
       <r>    1.6267    1.0000 </r>
       <r>    1.6269    1.0000 </r>
       <r>    1.6271    1.0000 </r>
       <r>    1.6272    1.0000 </r>
       <r>    1.6274    1.0000 </r>
       <r>    1.6276    1.0000 </r>
       <r>    1.6845    1.0000 </r>
       <r>    1.6848    1.0000 </r>
       <r>    1.6851    1.0000 </r>
       <r>    1.7539    1.0000 </r>
       <r>    1.7540    1.0000 </r>
       <r>    1.7544    1.0000 </r>
       <r>    1.7546    1.0000 </r>
       <r>    1.7547    1.0000 </r>
       <r>    1.7548    1.0000 </r>
       <r>    1.7978    1.0000 </r>
       <r>    1.7982    1.0000 </r>
       <r>    1.7985    1.0000 </r>
       <r>    2.0668    1.0000 </r>
       <r>    2.0669    1.0000 </r>
       <r>    2.0673    1.0000 </r>
       <r>    2.1744    1.0000 </r>
       <r>    2.1745    1.0000 </r>
       <r>    2.1751    1.0000 </r>
       <r>    2.1752    1.0000 </r>
       <r>    2.1753    1.0000 </r>
       <r>    2.1756    1.0000 </r>
       <r>    2.2144    1.0000 </r>
       <r>    2.2149    1.0000 </r>
       <r>    2.2149    1.0000 </r>
       <r>    2.3893    1.0000 </r>
       <r>    2.3894    1.0000 </r>
       <r>    2.3896    1.0000 </r>
       <r>    2.3897    1.0000 </r>
       <r>    2.3901    1.0000 </r>
       <r>    2.3902    1.0000 </r>
       <r>    2.4525    1.0000 </r>
       <r>    2.4526    1.0000 </r>
       <r>    2.4534    1.0000 </r>
       <r>    2.4534    1.0000 </r>
       <r>    2.4535    1.0000 </r>
       <r>    2.4537    1.0000 </r>
       <r>    2.4960    1.0000 </r>
       <r>    2.4965    1.0000 </r>
       <r>    2.4966    1.0000 </r>
       <r>    2.5106    1.0000 </r>
       <r>    2.5108    1.0000 </r>
       <r>    2.5111    1.0000 </r>
       <r>    2.6899    1.0000 </r>
       <r>    2.6902    1.0000 </r>
       <r>    2.6905    1.0000 </r>
       <r>    2.7721    1.0000 </r>
       <r>    2.7724    1.0000 </r>
       <r>    2.7726    1.0000 </r>
       <r>    2.8846    1.0000 </r>
       <r>    2.8848    1.0000 </r>
       <r>    2.8855    1.0000 </r>
       <r>    2.8959    1.0000 </r>
       <r>    2.8962    1.0000 </r>
       <r>    2.8963    1.0000 </r>
       <r>    3.0528    1.0000 </r>
       <r>    3.0530    1.0000 </r>
       <r>    3.0531    1.0000 </r>
       <r>    3.0531    1.0000 </r>
       <r>    3.0535    1.0000 </r>
       <r>    3.0540    1.0000 </r>
       <r>    3.1139    1.0000 </r>
       <r>    3.1142    1.0000 </r>
       <r>    3.1142    1.0000 </r>
       <r>    3.2532    1.0000 </r>
       <r>    3.3103    1.0000 </r>
       <r>    3.3107    1.0000 </r>
       <r>    3.3108    1.0000 </r>
       <r>    3.4187    1.0000 </r>
       <r>    3.4190    1.0000 </r>
       <r>    3.4192    1.0000 </r>
       <r>    3.5246    1.0000 </r>
       <r>    3.5249    1.0000 </r>
       <r>    3.5251    1.0000 </r>
       <r>    3.5360    1.0000 </r>
       <r>    3.5360    1.0000 </r>
       <r>    3.5362    1.0000 </r>
       <r>    3.5363    1.0000 </r>
       <r>    3.5366    1.0000 </r>
       <r>    3.5377    1.0000 </r>
       <r>    3.6316    1.0000 </r>
       <r>    3.6320    1.0000 </r>
       <r>    3.6322    1.0000 </r>
       <r>    3.8604    1.0000 </r>
       <r>    3.8606    1.0000 </r>
       <r>    3.8615    1.0000 </r>
       <r>    3.8748    1.0000 </r>
       <r>    3.8752    1.0000 </r>
       <r>    3.8753    1.0000 </r>
       <r>    3.9296    1.0000 </r>
       <r>    3.9301    1.0000 </r>
       <r>    3.9302    1.0000 </r>
       <r>    3.9572    1.0000 </r>
       <r>    3.9574    1.0000 </r>
       <r>    3.9581    1.0000 </r>
       <r>    3.9955    1.0000 </r>
       <r>    3.9956    1.0000 </r>
       <r>    3.9956    1.0000 </r>
       <r>    3.9956    1.0000 </r>
       <r>    3.9961    1.0000 </r>
       <r>    3.9974    1.0000 </r>
       <r>    4.1037    1.0000 </r>
       <r>    4.1038    1.0000 </r>
       <r>    4.1051    1.0000 </r>
       <r>    4.1223    1.0000 </r>
       <r>    4.1226    1.0000 </r>
       <r>    4.1228    1.0000 </r>
       <r>    4.2648    1.0000 </r>
       <r>    4.2652    1.0000 </r>
       <r>    4.2653    1.0000 </r>
       <r>    4.4863    1.0000 </r>
       <r>    4.4869    1.0000 </r>
       <r>    4.5328    1.0000 </r>
       <r>    4.5333    1.0000 </r>
       <r>    4.5334    1.0000 </r>
       <r>    4.6330    1.0000 </r>
       <r>    4.6335    1.0000 </r>
       <r>    4.7002    1.0000 </r>
       <r>    4.7003    1.0000 </r>
       <r>    4.7016    1.0000 </r>
       <r>    4.7025    1.0000 </r>
       <r>    4.7029    1.0000 </r>
       <r>    4.7030    1.0000 </r>
       <r>    4.7588    1.0000 </r>
       <r>    4.9429    1.0000 </r>
       <r>    4.9435    1.0000 </r>
       <r>    4.9436    1.0000 </r>
       <r>    5.1746    1.0000 </r>
       <r>    5.1752    1.0000 </r>
       <r>    5.4749    1.0000 </r>
       <r>    5.4756    1.0000 </r>
       <r>    6.4273    0.0000 </r>
       <r>    6.4274    0.0000 </r>
       <r>    6.4279    0.0000 </r>
       <r>    6.7118    0.0000 </r>
       <r>    6.7118    0.0000 </r>
       <r>    6.7123    0.0000 </r>
       <r>    6.8502    0.0000 </r>
       <r>    6.8503    0.0000 </r>
       <r>    6.8508    0.0000 </r>
       <r>    6.9873    0.0000 </r>
       <r>    6.9879    0.0000 </r>
       <r>    6.9881    0.0000 </r>
       <r>    7.0692    0.0000 </r>
       <r>    7.0695    0.0000 </r>
       <r>    7.0700    0.0000 </r>
       <r>    7.1397    0.0000 </r>
       <r>    7.3084    0.0000 </r>
       <r>    7.3314    0.0000 </r>
       <r>    7.3316    0.0000 </r>
       <r>    7.3320    0.0000 </r>
       <r>    7.3485    0.0000 </r>
       <r>    7.3489    0.0000 </r>
       <r>    7.3492    0.0000 </r>
       <r>    7.5116    0.0000 </r>
       <r>    7.5120    0.0000 </r>
       <r>    7.5120    0.0000 </r>
       <r>    7.5121    0.0000 </r>
       <r>    7.5129    0.0000 </r>
       <r>    7.5131    0.0000 </r>
       <r>    7.6016    0.0000 </r>
       <r>    7.6019    0.0000 </r>
       <r>    7.6020    0.0000 </r>
       <r>    7.6450    0.0000 </r>
       <r>    7.6452    0.0000 </r>
       <r>    7.6456    0.0000 </r>
       <r>    7.6554    0.0000 </r>
       <r>    7.6555    0.0000 </r>
       <r>    7.6559    0.0000 </r>
       <r>    7.8633    0.0000 </r>
       <r>    7.8641    0.0000 </r>
       <r>    7.8641    0.0000 </r>
       <r>    7.8642    0.0000 </r>
       <r>    7.8651    0.0000 </r>
       <r>    7.8651    0.0000 </r>
       <r>    7.9015    0.0000 </r>
       <r>    7.9812    0.0000 </r>
       <r>    7.9814    0.0000 </r>
       <r>    7.9816    0.0000 </r>
       <r>    8.0200    0.0000 </r>
       <r>    8.0202    0.0000 </r>
       <r>    8.0206    0.0000 </r>
       <r>    8.1800    0.0000 </r>
       <r>    8.3382    0.0000 </r>
       <r>    8.3387    0.0000 </r>
       <r>    8.3390    0.0000 </r>
       <r>    8.3562    0.0000 </r>
       <r>    8.3565    0.0000 </r>
       <r>    8.3568    0.0000 </r>
       <r>    8.3795    0.0000 </r>
       <r>    8.3798    0.0000 </r>
       <r>    8.4078    0.0000 </r>
       <r>    8.4081    0.0000 </r>
       <r>    8.4082    0.0000 </r>
       <r>    8.5727    0.0000 </r>
       <r>    8.5764    0.0000 </r>
       <r>    8.5906    0.0000 </r>
      </set>
      <set comment="kpoint 5">
       <r>   -6.0794    1.0000 </r>
       <r>   -5.7233    1.0000 </r>
       <r>   -5.6402    1.0000 </r>
       <r>   -5.6398    1.0000 </r>
       <r>   -5.6397    1.0000 </r>
       <r>   -5.6393    1.0000 </r>
       <r>   -5.0285    1.0000 </r>
       <r>   -5.0280    1.0000 </r>
       <r>   -5.0280    1.0000 </r>
       <r>   -5.0274    1.0000 </r>
       <r>   -4.9705    1.0000 </r>
       <r>   -4.9701    1.0000 </r>
       <r>   -4.9700    1.0000 </r>
       <r>   -4.9696    1.0000 </r>
       <r>   -4.7090    1.0000 </r>
       <r>   -4.7084    1.0000 </r>
       <r>   -4.7084    1.0000 </r>
       <r>   -4.7079    1.0000 </r>
       <r>   -4.3295    1.0000 </r>
       <r>   -4.3286    1.0000 </r>
       <r>   -4.3285    1.0000 </r>
       <r>   -4.3284    1.0000 </r>
       <r>   -4.3278    1.0000 </r>
       <r>   -4.1357    1.0000 </r>
       <r>   -4.1351    1.0000 </r>
       <r>   -4.1350    1.0000 </r>
       <r>   -4.1344    1.0000 </r>
       <r>   -3.9999    1.0000 </r>
       <r>   -3.9993    1.0000 </r>
       <r>   -3.9993    1.0000 </r>
       <r>   -3.9986    1.0000 </r>
       <r>   -3.6407    1.0000 </r>
       <r>   -3.6396    1.0000 </r>
       <r>   -3.6395    1.0000 </r>
       <r>   -3.6395    1.0000 </r>
       <r>   -3.6394    1.0000 </r>
       <r>   -3.6393    1.0000 </r>
       <r>   -3.6393    1.0000 </r>
       <r>   -3.6382    1.0000 </r>
       <r>   -3.5225    1.0000 </r>
       <r>   -3.5220    1.0000 </r>
       <r>   -3.5220    1.0000 </r>
       <r>   -3.5215    1.0000 </r>
       <r>   -3.4128    1.0000 </r>
       <r>   -3.4116    1.0000 </r>
       <r>   -3.4115    1.0000 </r>
       <r>   -3.4115    1.0000 </r>
       <r>   -3.4115    1.0000 </r>
       <r>   -3.4115    1.0000 </r>
       <r>   -3.4114    1.0000 </r>
       <r>   -3.4103    1.0000 </r>
       <r>   -3.3184    1.0000 </r>
       <r>   -2.7538    1.0000 </r>
       <r>   -2.7532    1.0000 </r>
       <r>   -2.7532    1.0000 </r>
       <r>   -2.7527    1.0000 </r>
       <r>   -2.7344    1.0000 </r>
       <r>   -2.7338    1.0000 </r>
       <r>   -2.7337    1.0000 </r>
       <r>   -2.7331    1.0000 </r>
       <r>   -2.0949    1.0000 </r>
       <r>   -2.0942    1.0000 </r>
       <r>   -2.0942    1.0000 </r>
       <r>   -2.0935    1.0000 </r>
       <r>   -2.0177    1.0000 </r>
       <r>   -2.0171    1.0000 </r>
       <r>   -2.0171    1.0000 </r>
       <r>   -2.0164    1.0000 </r>
       <r>   -1.3806    1.0000 </r>
       <r>   -1.3800    1.0000 </r>
       <r>   -1.3800    1.0000 </r>
       <r>   -1.3794    1.0000 </r>
       <r>   -1.2507    1.0000 </r>
       <r>   -1.2502    1.0000 </r>
       <r>   -1.2501    1.0000 </r>
       <r>   -1.2496    1.0000 </r>
       <r>   -1.0412    1.0000 </r>
       <r>   -1.0400    1.0000 </r>
       <r>   -1.0399    1.0000 </r>
       <r>   -1.0398    1.0000 </r>
       <r>   -1.0398    1.0000 </r>
       <r>   -1.0397    1.0000 </r>
       <r>   -1.0396    1.0000 </r>
       <r>   -1.0384    1.0000 </r>
       <r>   -0.9820    1.0000 </r>
       <r>   -0.9813    1.0000 </r>
       <r>   -0.9813    1.0000 </r>
       <r>   -0.9806    1.0000 </r>
       <r>   -0.8003    1.0000 </r>
       <r>   -0.5536    1.0000 </r>
       <r>   -0.5530    1.0000 </r>
       <r>   -0.5530    1.0000 </r>
       <r>   -0.5524    1.0000 </r>
       <r>   -0.3673    1.0000 </r>
       <r>   -0.3660    1.0000 </r>
       <r>   -0.3659    1.0000 </r>
       <r>   -0.3659    1.0000 </r>
       <r>   -0.3658    1.0000 </r>
       <r>   -0.3658    1.0000 </r>
       <r>   -0.3657    1.0000 </r>
       <r>   -0.3644    1.0000 </r>
       <r>   -0.3239    1.0000 </r>
       <r>   -0.3233    1.0000 </r>
       <r>   -0.3232    1.0000 </r>
       <r>   -0.3225    1.0000 </r>
       <r>    0.0035    1.0000 </r>
       <r>    0.0039    1.0000 </r>
       <r>    0.0041    1.0000 </r>
       <r>    0.0046    1.0000 </r>
       <r>    0.6257    1.0000 </r>
       <r>    0.8027    1.0000 </r>
       <r>    0.8031    1.0000 </r>
       <r>    0.8034    1.0000 </r>
       <r>    0.8038    1.0000 </r>
       <r>    0.9564    1.0000 </r>
       <r>    0.9570    1.0000 </r>
       <r>    0.9570    1.0000 </r>
       <r>    0.9577    1.0000 </r>
       <r>    1.5023    1.0000 </r>
       <r>    1.5027    1.0000 </r>
       <r>    1.5028    1.0000 </r>
       <r>    1.5031    1.0000 </r>
       <r>    1.5049    1.0000 </r>
       <r>    1.5051    1.0000 </r>
       <r>    1.5053    1.0000 </r>
       <r>    1.5054    1.0000 </r>
       <r>    1.5589    1.0000 </r>
       <r>    1.5590    1.0000 </r>
       <r>    1.5592    1.0000 </r>
       <r>    1.5594    1.0000 </r>
       <r>    1.7075    1.0000 </r>
       <r>    1.7082    1.0000 </r>
       <r>    1.7082    1.0000 </r>
       <r>    1.7089    1.0000 </r>
       <r>    2.0558    1.0000 </r>
       <r>    2.0560    1.0000 </r>
       <r>    2.0561    1.0000 </r>
       <r>    2.0563    1.0000 </r>
       <r>    2.2099    1.0000 </r>
       <r>    2.2103    1.0000 </r>
       <r>    2.2105    1.0000 </r>
       <r>    2.2108    1.0000 </r>
       <r>    2.2108    1.0000 </r>
       <r>    2.2111    1.0000 </r>
       <r>    2.2112    1.0000 </r>
       <r>    2.2116    1.0000 </r>
       <r>    2.2634    1.0000 </r>
       <r>    2.2635    1.0000 </r>
       <r>    2.2639    1.0000 </r>
       <r>    2.2639    1.0000 </r>
       <r>    2.2640    1.0000 </r>
       <r>    2.2640    1.0000 </r>
       <r>    2.2644    1.0000 </r>
       <r>    2.2645    1.0000 </r>
       <r>    2.5260    1.0000 </r>
       <r>    2.5262    1.0000 </r>
       <r>    2.5263    1.0000 </r>
       <r>    2.5265    1.0000 </r>
       <r>    2.5862    1.0000 </r>
       <r>    2.5865    1.0000 </r>
       <r>    2.5866    1.0000 </r>
       <r>    2.5869    1.0000 </r>
       <r>    2.6088    1.0000 </r>
       <r>    2.6092    1.0000 </r>
       <r>    2.6092    1.0000 </r>
       <r>    2.6096    1.0000 </r>
       <r>    2.6239    1.0000 </r>
       <r>    2.6243    1.0000 </r>
       <r>    2.6244    1.0000 </r>
       <r>    2.6249    1.0000 </r>
       <r>    2.6925    1.0000 </r>
       <r>    2.6929    1.0000 </r>
       <r>    2.6933    1.0000 </r>
       <r>    2.6937    1.0000 </r>
       <r>    2.9293    1.0000 </r>
       <r>    2.9297    1.0000 </r>
       <r>    3.0450    1.0000 </r>
       <r>    3.0456    1.0000 </r>
       <r>    3.0457    1.0000 </r>
       <r>    3.0458    1.0000 </r>
       <r>    3.0458    1.0000 </r>
       <r>    3.0460    1.0000 </r>
       <r>    3.0461    1.0000 </r>
       <r>    3.0467    1.0000 </r>
       <r>    3.2222    1.0000 </r>
       <r>    3.2227    1.0000 </r>
       <r>    3.2228    1.0000 </r>
       <r>    3.2233    1.0000 </r>
       <r>    3.2488    1.0000 </r>
       <r>    3.2492    1.0000 </r>
       <r>    3.2640    1.0000 </r>
       <r>    3.2645    1.0000 </r>
       <r>    3.2647    1.0000 </r>
       <r>    3.2652    1.0000 </r>
       <r>    3.3382    1.0000 </r>
       <r>    3.3386    1.0000 </r>
       <r>    3.3387    1.0000 </r>
       <r>    3.3391    1.0000 </r>
       <r>    3.5177    1.0000 </r>
       <r>    3.5182    1.0000 </r>
       <r>    3.5184    1.0000 </r>
       <r>    3.5185    1.0000 </r>
       <r>    3.5185    1.0000 </r>
       <r>    3.5186    1.0000 </r>
       <r>    3.5189    1.0000 </r>
       <r>    3.5193    1.0000 </r>
       <r>    3.5618    1.0000 </r>
       <r>    3.5836    1.0000 </r>
       <r>    3.5841    1.0000 </r>
       <r>    3.5841    1.0000 </r>
       <r>    3.5846    1.0000 </r>
       <r>    3.7678    1.0000 </r>
       <r>    3.7683    1.0000 </r>
       <r>    3.7685    1.0000 </r>
       <r>    3.7690    1.0000 </r>
       <r>    3.8231    1.0000 </r>
       <r>    3.8237    1.0000 </r>
       <r>    3.8238    1.0000 </r>
       <r>    3.8244    1.0000 </r>
       <r>    4.0209    1.0000 </r>
       <r>    4.0212    1.0000 </r>
       <r>    4.0213    1.0000 </r>
       <r>    4.0217    1.0000 </r>
       <r>    4.2592    1.0000 </r>
       <r>    4.2595    1.0000 </r>
       <r>    4.2597    1.0000 </r>
       <r>    4.2600    1.0000 </r>
       <r>    4.3253    1.0000 </r>
       <r>    4.3260    1.0000 </r>
       <r>    4.3261    1.0000 </r>
       <r>    4.3267    1.0000 </r>
       <r>    4.3422    1.0000 </r>
       <r>    4.3429    1.0000 </r>
       <r>    4.3430    1.0000 </r>
       <r>    4.3438    1.0000 </r>
       <r>    4.3518    1.0000 </r>
       <r>    4.3523    1.0000 </r>
       <r>    4.3524    1.0000 </r>
       <r>    4.3530    1.0000 </r>
       <r>    4.3674    1.0000 </r>
       <r>    4.3678    1.0000 </r>
       <r>    4.3680    1.0000 </r>
       <r>    4.3685    1.0000 </r>
       <r>    4.4040    1.0000 </r>
       <r>    4.4047    1.0000 </r>
       <r>    4.4049    1.0000 </r>
       <r>    4.4057    1.0000 </r>
       <r>    4.4508    1.0000 </r>
       <r>    4.4514    1.0000 </r>
       <r>    4.9067    1.0000 </r>
       <r>    5.1971    1.0000 </r>
       <r>    5.1979    1.0000 </r>
       <r>    5.2660    1.0000 </r>
       <r>    5.2669    1.0000 </r>
       <r>    5.2670    1.0000 </r>
       <r>    5.2680    1.0000 </r>
       <r>    6.2262    0.0000 </r>
       <r>    6.3744    0.0000 </r>
       <r>    6.8318    0.0000 </r>
       <r>    6.8849    0.0000 </r>
       <r>    6.8855    0.0000 </r>
       <r>    6.8856    0.0000 </r>
       <r>    6.8861    0.0000 </r>
       <r>    6.9672    0.0000 </r>
       <r>    6.9677    0.0000 </r>
       <r>    6.9678    0.0000 </r>
       <r>    6.9683    0.0000 </r>
       <r>    7.3305    0.0000 </r>
       <r>    7.3582    0.0000 </r>
       <r>    7.3591    0.0000 </r>
       <r>    7.3592    0.0000 </r>
       <r>    7.3593    0.0000 </r>
       <r>    7.3593    0.0000 </r>
       <r>    7.3594    0.0000 </r>
       <r>    7.3595    0.0000 </r>
       <r>    7.3604    0.0000 </r>
       <r>    7.4135    0.0000 </r>
       <r>    7.4139    0.0000 </r>
       <r>    7.4142    0.0000 </r>
       <r>    7.4146    0.0000 </r>
       <r>    7.6254    0.0000 </r>
       <r>    7.6256    0.0000 </r>
       <r>    7.6258    0.0000 </r>
       <r>    7.6259    0.0000 </r>
       <r>    7.6281    0.0000 </r>
       <r>    7.6285    0.0000 </r>
       <r>    7.6287    0.0000 </r>
       <r>    7.6293    0.0000 </r>
       <r>    7.6377    0.0000 </r>
       <r>    7.8564    0.0000 </r>
       <r>    7.8566    0.0000 </r>
       <r>    7.8569    0.0000 </r>
       <r>    7.8571    0.0000 </r>
       <r>    7.9037    0.0000 </r>
       <r>    7.9868    0.0000 </r>
       <r>    7.9877    0.0000 </r>
       <r>    7.9880    0.0000 </r>
       <r>    7.9880    0.0000 </r>
       <r>    7.9880    0.0000 </r>
       <r>    7.9881    0.0000 </r>
       <r>    7.9883    0.0000 </r>
       <r>    7.9892    0.0000 </r>
       <r>    8.0414    0.0000 </r>
       <r>    8.0419    0.0000 </r>
       <r>    8.0420    0.0000 </r>
       <r>    8.0426    0.0000 </r>
       <r>    8.1427    0.0000 </r>
       <r>    8.1431    0.0000 </r>
       <r>    8.1432    0.0000 </r>
       <r>    8.1436    0.0000 </r>
       <r>    8.2655    0.0000 </r>
       <r>    8.2657    0.0000 </r>
       <r>    8.2658    0.0000 </r>
       <r>    8.2661    0.0000 </r>
       <r>    8.3670    0.0000 </r>
       <r>    8.3675    0.0000 </r>
       <r>    8.3677    0.0000 </r>
       <r>    8.3682    0.0000 </r>
       <r>    8.6280    0.0000 </r>
       <r>    8.6287    0.0000 </r>
       <r>    8.6300    0.0000 </r>
       <r>    8.6336    0.0000 </r>
      </set>
      <set comment="kpoint 6">
       <r>   -6.0794    1.0000 </r>
       <r>   -5.7233    1.0000 </r>
       <r>   -5.6403    1.0000 </r>
       <r>   -5.6397    1.0000 </r>
       <r>   -5.6397    1.0000 </r>
       <r>   -5.6392    1.0000 </r>
       <r>   -5.0287    1.0000 </r>
       <r>   -5.0280    1.0000 </r>
       <r>   -5.0279    1.0000 </r>
       <r>   -5.0272    1.0000 </r>
       <r>   -4.9706    1.0000 </r>
       <r>   -4.9701    1.0000 </r>
       <r>   -4.9701    1.0000 </r>
       <r>   -4.9695    1.0000 </r>
       <r>   -4.7091    1.0000 </r>
       <r>   -4.7084    1.0000 </r>
       <r>   -4.7084    1.0000 </r>
       <r>   -4.7077    1.0000 </r>
       <r>   -4.3291    1.0000 </r>
       <r>   -4.3288    1.0000 </r>
       <r>   -4.3285    1.0000 </r>
       <r>   -4.3285    1.0000 </r>
       <r>   -4.3279    1.0000 </r>
       <r>   -4.1359    1.0000 </r>
       <r>   -4.1351    1.0000 </r>
       <r>   -4.1351    1.0000 </r>
       <r>   -4.1343    1.0000 </r>
       <r>   -4.0000    1.0000 </r>
       <r>   -3.9993    1.0000 </r>
       <r>   -3.9993    1.0000 </r>
       <r>   -3.9986    1.0000 </r>
       <r>   -3.6411    1.0000 </r>
       <r>   -3.6395    1.0000 </r>
       <r>   -3.6395    1.0000 </r>
       <r>   -3.6394    1.0000 </r>
       <r>   -3.6394    1.0000 </r>
       <r>   -3.6394    1.0000 </r>
       <r>   -3.6393    1.0000 </r>
       <r>   -3.6378    1.0000 </r>
       <r>   -3.5227    1.0000 </r>
       <r>   -3.5220    1.0000 </r>
       <r>   -3.5220    1.0000 </r>
       <r>   -3.5213    1.0000 </r>
       <r>   -3.4130    1.0000 </r>
       <r>   -3.4116    1.0000 </r>
       <r>   -3.4115    1.0000 </r>
       <r>   -3.4115    1.0000 </r>
       <r>   -3.4115    1.0000 </r>
       <r>   -3.4115    1.0000 </r>
       <r>   -3.4114    1.0000 </r>
       <r>   -3.4100    1.0000 </r>
       <r>   -3.3184    1.0000 </r>
       <r>   -2.7539    1.0000 </r>
       <r>   -2.7532    1.0000 </r>
       <r>   -2.7532    1.0000 </r>
       <r>   -2.7526    1.0000 </r>
       <r>   -2.7343    1.0000 </r>
       <r>   -2.7338    1.0000 </r>
       <r>   -2.7338    1.0000 </r>
       <r>   -2.7333    1.0000 </r>
       <r>   -2.0950    1.0000 </r>
       <r>   -2.0943    1.0000 </r>
       <r>   -2.0941    1.0000 </r>
       <r>   -2.0934    1.0000 </r>
       <r>   -2.0178    1.0000 </r>
       <r>   -2.0171    1.0000 </r>
       <r>   -2.0170    1.0000 </r>
       <r>   -2.0163    1.0000 </r>
       <r>   -1.3805    1.0000 </r>
       <r>   -1.3800    1.0000 </r>
       <r>   -1.3800    1.0000 </r>
       <r>   -1.3795    1.0000 </r>
       <r>   -1.2509    1.0000 </r>
       <r>   -1.2502    1.0000 </r>
       <r>   -1.2501    1.0000 </r>
       <r>   -1.2494    1.0000 </r>
       <r>   -1.0412    1.0000 </r>
       <r>   -1.0400    1.0000 </r>
       <r>   -1.0400    1.0000 </r>
       <r>   -1.0398    1.0000 </r>
       <r>   -1.0398    1.0000 </r>
       <r>   -1.0396    1.0000 </r>
       <r>   -1.0396    1.0000 </r>
       <r>   -1.0384    1.0000 </r>
       <r>   -0.9820    1.0000 </r>
       <r>   -0.9813    1.0000 </r>
       <r>   -0.9813    1.0000 </r>
       <r>   -0.9806    1.0000 </r>
       <r>   -0.8003    1.0000 </r>
       <r>   -0.5538    1.0000 </r>
       <r>   -0.5531    1.0000 </r>
       <r>   -0.5530    1.0000 </r>
       <r>   -0.5523    1.0000 </r>
       <r>   -0.3672    1.0000 </r>
       <r>   -0.3660    1.0000 </r>
       <r>   -0.3659    1.0000 </r>
       <r>   -0.3658    1.0000 </r>
       <r>   -0.3658    1.0000 </r>
       <r>   -0.3658    1.0000 </r>
       <r>   -0.3657    1.0000 </r>
       <r>   -0.3645    1.0000 </r>
       <r>   -0.3240    1.0000 </r>
       <r>   -0.3232    1.0000 </r>
       <r>   -0.3232    1.0000 </r>
       <r>   -0.3225    1.0000 </r>
       <r>    0.0033    1.0000 </r>
       <r>    0.0040    1.0000 </r>
       <r>    0.0040    1.0000 </r>
       <r>    0.0048    1.0000 </r>
       <r>    0.6257    1.0000 </r>
       <r>    0.8025    1.0000 </r>
       <r>    0.8033    1.0000 </r>
       <r>    0.8033    1.0000 </r>
       <r>    0.8040    1.0000 </r>
       <r>    0.9563    1.0000 </r>
       <r>    0.9570    1.0000 </r>
       <r>    0.9571    1.0000 </r>
       <r>    0.9578    1.0000 </r>
       <r>    1.5024    1.0000 </r>
       <r>    1.5027    1.0000 </r>
       <r>    1.5027    1.0000 </r>
       <r>    1.5031    1.0000 </r>
       <r>    1.5049    1.0000 </r>
       <r>    1.5050    1.0000 </r>
       <r>    1.5053    1.0000 </r>
       <r>    1.5055    1.0000 </r>
       <r>    1.5588    1.0000 </r>
       <r>    1.5590    1.0000 </r>
       <r>    1.5593    1.0000 </r>
       <r>    1.5594    1.0000 </r>
       <r>    1.7075    1.0000 </r>
       <r>    1.7081    1.0000 </r>
       <r>    1.7082    1.0000 </r>
       <r>    1.7088    1.0000 </r>
       <r>    2.0557    1.0000 </r>
       <r>    2.0558    1.0000 </r>
       <r>    2.0563    1.0000 </r>
       <r>    2.0564    1.0000 </r>
       <r>    2.2102    1.0000 </r>
       <r>    2.2104    1.0000 </r>
       <r>    2.2105    1.0000 </r>
       <r>    2.2107    1.0000 </r>
       <r>    2.2108    1.0000 </r>
       <r>    2.2111    1.0000 </r>
       <r>    2.2111    1.0000 </r>
       <r>    2.2114    1.0000 </r>
       <r>    2.2633    1.0000 </r>
       <r>    2.2635    1.0000 </r>
       <r>    2.2636    1.0000 </r>
       <r>    2.2639    1.0000 </r>
       <r>    2.2639    1.0000 </r>
       <r>    2.2642    1.0000 </r>
       <r>    2.2644    1.0000 </r>
       <r>    2.2646    1.0000 </r>
       <r>    2.5259    1.0000 </r>
       <r>    2.5260    1.0000 </r>
       <r>    2.5265    1.0000 </r>
       <r>    2.5266    1.0000 </r>
       <r>    2.5862    1.0000 </r>
       <r>    2.5863    1.0000 </r>
       <r>    2.5868    1.0000 </r>
       <r>    2.5868    1.0000 </r>
       <r>    2.6087    1.0000 </r>
       <r>    2.6090    1.0000 </r>
       <r>    2.6094    1.0000 </r>
       <r>    2.6097    1.0000 </r>
       <r>    2.6237    1.0000 </r>
       <r>    2.6244    1.0000 </r>
       <r>    2.6244    1.0000 </r>
       <r>    2.6251    1.0000 </r>
       <r>    2.6925    1.0000 </r>
       <r>    2.6931    1.0000 </r>
       <r>    2.6931    1.0000 </r>
       <r>    2.6937    1.0000 </r>
       <r>    2.9295    1.0000 </r>
       <r>    2.9295    1.0000 </r>
       <r>    3.0451    1.0000 </r>
       <r>    3.0455    1.0000 </r>
       <r>    3.0457    1.0000 </r>
       <r>    3.0457    1.0000 </r>
       <r>    3.0459    1.0000 </r>
       <r>    3.0460    1.0000 </r>
       <r>    3.0462    1.0000 </r>
       <r>    3.0466    1.0000 </r>
       <r>    3.2220    1.0000 </r>
       <r>    3.2228    1.0000 </r>
       <r>    3.2228    1.0000 </r>
       <r>    3.2235    1.0000 </r>
       <r>    3.2490    1.0000 </r>
       <r>    3.2490    1.0000 </r>
       <r>    3.2642    1.0000 </r>
       <r>    3.2646    1.0000 </r>
       <r>    3.2646    1.0000 </r>
       <r>    3.2650    1.0000 </r>
       <r>    3.3384    1.0000 </r>
       <r>    3.3384    1.0000 </r>
       <r>    3.3389    1.0000 </r>
       <r>    3.3389    1.0000 </r>
       <r>    3.5175    1.0000 </r>
       <r>    3.5181    1.0000 </r>
       <r>    3.5184    1.0000 </r>
       <r>    3.5185    1.0000 </r>
       <r>    3.5185    1.0000 </r>
       <r>    3.5186    1.0000 </r>
       <r>    3.5190    1.0000 </r>
       <r>    3.5195    1.0000 </r>
       <r>    3.5618    1.0000 </r>
       <r>    3.5835    1.0000 </r>
       <r>    3.5840    1.0000 </r>
       <r>    3.5841    1.0000 </r>
       <r>    3.5847    1.0000 </r>
       <r>    3.7676    1.0000 </r>
       <r>    3.7684    1.0000 </r>
       <r>    3.7684    1.0000 </r>
       <r>    3.7692    1.0000 </r>
       <r>    3.8234    1.0000 </r>
       <r>    3.8237    1.0000 </r>
       <r>    3.8238    1.0000 </r>
       <r>    3.8241    1.0000 </r>
       <r>    4.0207    1.0000 </r>
       <r>    4.0211    1.0000 </r>
       <r>    4.0214    1.0000 </r>
       <r>    4.0218    1.0000 </r>
       <r>    4.2590    1.0000 </r>
       <r>    4.2596    1.0000 </r>
       <r>    4.2596    1.0000 </r>
       <r>    4.2602    1.0000 </r>
       <r>    4.3258    1.0000 </r>
       <r>    4.3260    1.0000 </r>
       <r>    4.3261    1.0000 </r>
       <r>    4.3263    1.0000 </r>
       <r>    4.3426    1.0000 </r>
       <r>    4.3429    1.0000 </r>
       <r>    4.3430    1.0000 </r>
       <r>    4.3434    1.0000 </r>
       <r>    4.3516    1.0000 </r>
       <r>    4.3524    1.0000 </r>
       <r>    4.3524    1.0000 </r>
       <r>    4.3532    1.0000 </r>
       <r>    4.3673    1.0000 </r>
       <r>    4.3677    1.0000 </r>
       <r>    4.3681    1.0000 </r>
       <r>    4.3686    1.0000 </r>
       <r>    4.4044    1.0000 </r>
       <r>    4.4048    1.0000 </r>
       <r>    4.4049    1.0000 </r>
       <r>    4.4052    1.0000 </r>
       <r>    4.4511    1.0000 </r>
       <r>    4.4511    1.0000 </r>
       <r>    4.9067    1.0000 </r>
       <r>    5.1975    1.0000 </r>
       <r>    5.1975    1.0000 </r>
       <r>    5.2667    1.0000 </r>
       <r>    5.2670    1.0000 </r>
       <r>    5.2670    1.0000 </r>
       <r>    5.2672    1.0000 </r>
       <r>    6.2262    0.0000 </r>
       <r>    6.3744    0.0000 </r>
       <r>    6.8318    0.0000 </r>
       <r>    6.8853    0.0000 </r>
       <r>    6.8855    0.0000 </r>
       <r>    6.8855    0.0000 </r>
       <r>    6.8858    0.0000 </r>
       <r>    6.9673    0.0000 </r>
       <r>    6.9674    0.0000 </r>
       <r>    6.9681    0.0000 </r>
       <r>    6.9681    0.0000 </r>
       <r>    7.3305    0.0000 </r>
       <r>    7.3584    0.0000 </r>
       <r>    7.3588    0.0000 </r>
       <r>    7.3592    0.0000 </r>
       <r>    7.3592    0.0000 </r>
       <r>    7.3594    0.0000 </r>
       <r>    7.3594    0.0000 </r>
       <r>    7.3598    0.0000 </r>
       <r>    7.3602    0.0000 </r>
       <r>    7.4136    0.0000 </r>
       <r>    7.4138    0.0000 </r>
       <r>    7.4143    0.0000 </r>
       <r>    7.4145    0.0000 </r>
       <r>    7.6254    0.0000 </r>
       <r>    7.6257    0.0000 </r>
       <r>    7.6257    0.0000 </r>
       <r>    7.6259    0.0000 </r>
       <r>    7.6285    0.0000 </r>
       <r>    7.6286    0.0000 </r>
       <r>    7.6287    0.0000 </r>
       <r>    7.6288    0.0000 </r>
       <r>    7.6377    0.0000 </r>
       <r>    7.8565    0.0000 </r>
       <r>    7.8568    0.0000 </r>
       <r>    7.8568    0.0000 </r>
       <r>    7.8570    0.0000 </r>
       <r>    7.9037    0.0000 </r>
       <r>    7.9871    0.0000 </r>
       <r>    7.9871    0.0000 </r>
       <r>    7.9880    0.0000 </r>
       <r>    7.9880    0.0000 </r>
       <r>    7.9881    0.0000 </r>
       <r>    7.9881    0.0000 </r>
       <r>    7.9889    0.0000 </r>
       <r>    7.9890    0.0000 </r>
       <r>    8.0419    0.0000 </r>
       <r>    8.0420    0.0000 </r>
       <r>    8.0420    0.0000 </r>
       <r>    8.0421    0.0000 </r>
       <r>    8.1427    0.0000 </r>
       <r>    8.1430    0.0000 </r>
       <r>    8.1434    0.0000 </r>
       <r>    8.1436    0.0000 </r>
       <r>    8.2654    0.0000 </r>
       <r>    8.2658    0.0000 </r>
       <r>    8.2658    0.0000 </r>
       <r>    8.2661    0.0000 </r>
       <r>    8.3671    0.0000 </r>
       <r>    8.3672    0.0000 </r>
       <r>    8.3680    0.0000 </r>
       <r>    8.3681    0.0000 </r>
       <r>    8.6282    0.0000 </r>
       <r>    8.6286    0.0000 </r>
       <r>    8.6288    0.0000 </r>
       <r>    8.6296    0.0000 </r>
      </set>
      <set comment="kpoint 7">
       <r>   -5.9611    1.0000 </r>
       <r>   -5.8725    1.0000 </r>
       <r>   -5.8720    1.0000 </r>
       <r>   -5.6086    1.0000 </r>
       <r>   -5.6082    1.0000 </r>
       <r>   -5.2667    1.0000 </r>
       <r>   -5.1809    1.0000 </r>
       <r>   -5.1803    1.0000 </r>
       <r>   -5.1802    1.0000 </r>
       <r>   -5.1797    1.0000 </r>
       <r>   -4.9237    1.0000 </r>
       <r>   -4.9229    1.0000 </r>
       <r>   -4.6176    1.0000 </r>
       <r>   -4.6168    1.0000 </r>
       <r>   -4.6167    1.0000 </r>
       <r>   -4.6162    1.0000 </r>
       <r>   -4.5657    1.0000 </r>
       <r>   -4.5653    1.0000 </r>
       <r>   -4.5064    1.0000 </r>
       <r>   -4.5059    1.0000 </r>
       <r>   -4.5058    1.0000 </r>
       <r>   -4.5052    1.0000 </r>
       <r>   -4.3590    1.0000 </r>
       <r>   -4.3583    1.0000 </r>
       <r>   -4.2327    1.0000 </r>
       <r>   -4.2323    1.0000 </r>
       <r>   -4.0110    1.0000 </r>
       <r>   -4.0102    1.0000 </r>
       <r>   -4.0101    1.0000 </r>
       <r>   -4.0097    1.0000 </r>
       <r>   -3.9534    1.0000 </r>
       <r>   -3.9528    1.0000 </r>
       <r>   -3.8048    1.0000 </r>
       <r>   -3.8040    1.0000 </r>
       <r>   -3.6827    1.0000 </r>
       <r>   -3.6821    1.0000 </r>
       <r>   -3.6501    1.0000 </r>
       <r>   -3.6495    1.0000 </r>
       <r>   -3.5439    1.0000 </r>
       <r>   -3.5433    1.0000 </r>
       <r>   -3.5433    1.0000 </r>
       <r>   -3.5425    1.0000 </r>
       <r>   -3.3441    1.0000 </r>
       <r>   -3.3431    1.0000 </r>
       <r>   -3.3431    1.0000 </r>
       <r>   -3.3425    1.0000 </r>
       <r>   -3.2437    1.0000 </r>
       <r>   -3.2431    1.0000 </r>
       <r>   -3.0361    1.0000 </r>
       <r>   -3.0357    1.0000 </r>
       <r>   -3.0019    1.0000 </r>
       <r>   -2.9981    1.0000 </r>
       <r>   -2.9975    1.0000 </r>
       <r>   -2.9975    1.0000 </r>
       <r>   -2.9967    1.0000 </r>
       <r>   -2.9932    1.0000 </r>
       <r>   -2.9926    1.0000 </r>
       <r>   -2.6290    1.0000 </r>
       <r>   -2.6284    1.0000 </r>
       <r>   -2.6283    1.0000 </r>
       <r>   -2.6278    1.0000 </r>
       <r>   -2.4822    1.0000 </r>
       <r>   -2.4814    1.0000 </r>
       <r>   -2.2741    1.0000 </r>
       <r>   -1.8714    1.0000 </r>
       <r>   -1.5775    1.0000 </r>
       <r>   -1.5768    1.0000 </r>
       <r>   -1.4697    1.0000 </r>
       <r>   -1.4694    1.0000 </r>
       <r>   -1.4693    1.0000 </r>
       <r>   -1.4686    1.0000 </r>
       <r>   -1.1638    1.0000 </r>
       <r>   -1.1633    1.0000 </r>
       <r>   -1.1511    1.0000 </r>
       <r>   -1.1505    1.0000 </r>
       <r>   -1.1324    1.0000 </r>
       <r>   -1.1314    1.0000 </r>
       <r>   -1.1312    1.0000 </r>
       <r>   -1.1310    1.0000 </r>
       <r>   -1.0978    1.0000 </r>
       <r>   -1.0634    1.0000 </r>
       <r>   -1.0628    1.0000 </r>
       <r>   -0.9807    1.0000 </r>
       <r>   -0.9798    1.0000 </r>
       <r>   -0.8590    1.0000 </r>
       <r>   -0.8578    1.0000 </r>
       <r>   -0.8577    1.0000 </r>
       <r>   -0.8576    1.0000 </r>
       <r>   -0.8374    1.0000 </r>
       <r>   -0.8369    1.0000 </r>
       <r>   -0.7469    1.0000 </r>
       <r>   -0.7466    1.0000 </r>
       <r>   -0.7463    1.0000 </r>
       <r>   -0.7456    1.0000 </r>
       <r>   -0.6665    1.0000 </r>
       <r>   -0.6662    1.0000 </r>
       <r>   -0.6661    1.0000 </r>
       <r>   -0.6650    1.0000 </r>
       <r>   -0.4037    1.0000 </r>
       <r>   -0.4030    1.0000 </r>
       <r>   -0.1473    1.0000 </r>
       <r>   -0.1467    1.0000 </r>
       <r>   -0.0314    1.0000 </r>
       <r>   -0.0306    1.0000 </r>
       <r>    0.0082    1.0000 </r>
       <r>    0.0088    1.0000 </r>
       <r>    0.3995    1.0000 </r>
       <r>    0.3997    1.0000 </r>
       <r>    0.4000    1.0000 </r>
       <r>    0.4007    1.0000 </r>
       <r>    0.4541    1.0000 </r>
       <r>    0.4549    1.0000 </r>
       <r>    0.6767    1.0000 </r>
       <r>    0.6778    1.0000 </r>
       <r>    0.6778    1.0000 </r>
       <r>    0.6782    1.0000 </r>
       <r>    1.2127    1.0000 </r>
       <r>    1.2133    1.0000 </r>
       <r>    1.3055    1.0000 </r>
       <r>    1.4658    1.0000 </r>
       <r>    1.4662    1.0000 </r>
       <r>    1.4729    1.0000 </r>
       <r>    1.4735    1.0000 </r>
       <r>    1.4736    1.0000 </r>
       <r>    1.4738    1.0000 </r>
       <r>    1.6753    1.0000 </r>
       <r>    1.6755    1.0000 </r>
       <r>    1.6758    1.0000 </r>
       <r>    1.6765    1.0000 </r>
       <r>    1.6911    1.0000 </r>
       <r>    1.6915    1.0000 </r>
       <r>    1.7840    1.0000 </r>
       <r>    1.7842    1.0000 </r>
       <r>    1.7846    1.0000 </r>
       <r>    1.7849    1.0000 </r>
       <r>    1.8593    1.0000 </r>
       <r>    1.9186    1.0000 </r>
       <r>    1.9327    1.0000 </r>
       <r>    1.9331    1.0000 </r>
       <r>    1.9500    1.0000 </r>
       <r>    1.9502    1.0000 </r>
       <r>    1.9504    1.0000 </r>
       <r>    1.9506    1.0000 </r>
       <r>    2.0968    1.0000 </r>
       <r>    2.0970    1.0000 </r>
       <r>    2.0974    1.0000 </r>
       <r>    2.0977    1.0000 </r>
       <r>    2.1257    1.0000 </r>
       <r>    2.1261    1.0000 </r>
       <r>    2.5407    1.0000 </r>
       <r>    2.5409    1.0000 </r>
       <r>    2.5603    1.0000 </r>
       <r>    2.5605    1.0000 </r>
       <r>    2.6761    1.0000 </r>
       <r>    2.6764    1.0000 </r>
       <r>    2.7103    1.0000 </r>
       <r>    2.7105    1.0000 </r>
       <r>    2.7106    1.0000 </r>
       <r>    2.7110    1.0000 </r>
       <r>    2.7535    1.0000 </r>
       <r>    2.7540    1.0000 </r>
       <r>    2.7753    1.0000 </r>
       <r>    2.7759    1.0000 </r>
       <r>    2.8081    1.0000 </r>
       <r>    2.8083    1.0000 </r>
       <r>    2.8086    1.0000 </r>
       <r>    2.8089    1.0000 </r>
       <r>    2.8384    1.0000 </r>
       <r>    2.8387    1.0000 </r>
       <r>    2.8953    1.0000 </r>
       <r>    2.8957    1.0000 </r>
       <r>    2.9028    1.0000 </r>
       <r>    2.9034    1.0000 </r>
       <r>    2.9189    1.0000 </r>
       <r>    2.9193    1.0000 </r>
       <r>    3.0111    1.0000 </r>
       <r>    3.0441    1.0000 </r>
       <r>    3.0449    1.0000 </r>
       <r>    3.0450    1.0000 </r>
       <r>    3.0453    1.0000 </r>
       <r>    3.0577    1.0000 </r>
       <r>    3.0584    1.0000 </r>
       <r>    3.0944    1.0000 </r>
       <r>    3.0946    1.0000 </r>
       <r>    3.0949    1.0000 </r>
       <r>    3.0954    1.0000 </r>
       <r>    3.1085    1.0000 </r>
       <r>    3.1092    1.0000 </r>
       <r>    3.2230    1.0000 </r>
       <r>    3.2237    1.0000 </r>
       <r>    3.2239    1.0000 </r>
       <r>    3.2243    1.0000 </r>
       <r>    3.2465    1.0000 </r>
       <r>    3.2469    1.0000 </r>
       <r>    3.2472    1.0000 </r>
       <r>    3.2474    1.0000 </r>
       <r>    3.2572    1.0000 </r>
       <r>    3.2574    1.0000 </r>
       <r>    3.2590    1.0000 </r>
       <r>    3.3721    1.0000 </r>
       <r>    3.3729    1.0000 </r>
       <r>    3.4931    1.0000 </r>
       <r>    3.4941    1.0000 </r>
       <r>    3.4944    1.0000 </r>
       <r>    3.4944    1.0000 </r>
       <r>    3.5473    1.0000 </r>
       <r>    3.6551    1.0000 </r>
       <r>    3.6557    1.0000 </r>
       <r>    3.6860    1.0000 </r>
       <r>    3.6865    1.0000 </r>
       <r>    3.6867    1.0000 </r>
       <r>    3.6870    1.0000 </r>
       <r>    3.6925    1.0000 </r>
       <r>    3.6932    1.0000 </r>
       <r>    3.7402    1.0000 </r>
       <r>    3.7406    1.0000 </r>
       <r>    3.7408    1.0000 </r>
       <r>    3.7411    1.0000 </r>
       <r>    3.7972    1.0000 </r>
       <r>    3.7975    1.0000 </r>
       <r>    3.9071    1.0000 </r>
       <r>    3.9080    1.0000 </r>
       <r>    4.0022    1.0000 </r>
       <r>    4.0026    1.0000 </r>
       <r>    4.0208    1.0000 </r>
       <r>    4.0209    1.0000 </r>
       <r>    4.0264    1.0000 </r>
       <r>    4.0546    1.0000 </r>
       <r>    4.0553    1.0000 </r>
       <r>    4.0607    1.0000 </r>
       <r>    4.0612    1.0000 </r>
       <r>    4.0899    1.0000 </r>
       <r>    4.0913    1.0000 </r>
       <r>    4.0914    1.0000 </r>
       <r>    4.0915    1.0000 </r>
       <r>    4.2363    1.0000 </r>
       <r>    4.2372    1.0000 </r>
       <r>    4.3305    1.0000 </r>
       <r>    4.3313    1.0000 </r>
       <r>    4.3315    1.0000 </r>
       <r>    4.3319    1.0000 </r>
       <r>    4.6394    1.0000 </r>
       <r>    4.6402    1.0000 </r>
       <r>    4.6503    1.0000 </r>
       <r>    4.6507    1.0000 </r>
       <r>    4.6509    1.0000 </r>
       <r>    4.6516    1.0000 </r>
       <r>    4.7751    1.0000 </r>
       <r>    4.8411    1.0000 </r>
       <r>    4.8422    1.0000 </r>
       <r>    4.9188    1.0000 </r>
       <r>    4.9198    1.0000 </r>
       <r>    5.0188    1.0000 </r>
       <r>    5.0196    1.0000 </r>
       <r>    5.0596    1.0000 </r>
       <r>    5.4989    1.0000 </r>
       <r>    6.5360    0.0000 </r>
       <r>    6.5365    0.0000 </r>
       <r>    6.5858    0.0000 </r>
       <r>    6.8620    0.0000 </r>
       <r>    6.8625    0.0000 </r>
       <r>    7.0256    0.0000 </r>
       <r>    7.0262    0.0000 </r>
       <r>    7.1529    0.0000 </r>
       <r>    7.1532    0.0000 </r>
       <r>    7.1535    0.0000 </r>
       <r>    7.1540    0.0000 </r>
       <r>    7.2042    0.0000 </r>
       <r>    7.3766    0.0000 </r>
       <r>    7.3773    0.0000 </r>
       <r>    7.3854    0.0000 </r>
       <r>    7.3860    0.0000 </r>
       <r>    7.5048    0.0000 </r>
       <r>    7.5053    0.0000 </r>
       <r>    7.5847    0.0000 </r>
       <r>    7.5852    0.0000 </r>
       <r>    7.6854    0.0000 </r>
       <r>    7.6857    0.0000 </r>
       <r>    7.7426    0.0000 </r>
       <r>    7.7432    0.0000 </r>
       <r>    7.7434    0.0000 </r>
       <r>    7.7437    0.0000 </r>
       <r>    7.7564    0.0000 </r>
       <r>    7.7566    0.0000 </r>
       <r>    7.7620    0.0000 </r>
       <r>    7.7625    0.0000 </r>
       <r>    7.7626    0.0000 </r>
       <r>    7.7630    0.0000 </r>
       <r>    7.7911    0.0000 </r>
       <r>    7.7918    0.0000 </r>
       <r>    7.9218    0.0000 </r>
       <r>    7.9220    0.0000 </r>
       <r>    7.9502    0.0000 </r>
       <r>    7.9508    0.0000 </r>
       <r>    8.1130    0.0000 </r>
       <r>    8.1132    0.0000 </r>
       <r>    8.1449    0.0000 </r>
       <r>    8.1451    0.0000 </r>
       <r>    8.1649    0.0000 </r>
       <r>    8.1722    0.0000 </r>
       <r>    8.1723    0.0000 </r>
       <r>    8.1726    0.0000 </r>
       <r>    8.1730    0.0000 </r>
       <r>    8.2188    0.0000 </r>
       <r>    8.2189    0.0000 </r>
       <r>    8.2194    0.0000 </r>
       <r>    8.2196    0.0000 </r>
       <r>    8.2279    0.0000 </r>
       <r>    8.2282    0.0000 </r>
       <r>    8.2285    0.0000 </r>
       <r>    8.2292    0.0000 </r>
       <r>    8.2405    0.0000 </r>
       <r>    8.2412    0.0000 </r>
       <r>    8.2414    0.0000 </r>
       <r>    8.2418    0.0000 </r>
       <r>    8.2614    0.0000 </r>
       <r>    8.2617    0.0000 </r>
       <r>    8.2622    0.0000 </r>
       <r>    8.2640    0.0000 </r>
       <r>    8.2973    0.0000 </r>
       <r>    8.3039    0.0000 </r>
       <r>    8.4265    0.0000 </r>
      </set>
      <set comment="kpoint 8">
       <r>   -5.9611    1.0000 </r>
       <r>   -5.8722    1.0000 </r>
       <r>   -5.8722    1.0000 </r>
       <r>   -5.6087    1.0000 </r>
       <r>   -5.6080    1.0000 </r>
       <r>   -5.2668    1.0000 </r>
       <r>   -5.1810    1.0000 </r>
       <r>   -5.1803    1.0000 </r>
       <r>   -5.1802    1.0000 </r>
       <r>   -5.1795    1.0000 </r>
       <r>   -4.9233    1.0000 </r>
       <r>   -4.9233    1.0000 </r>
       <r>   -4.6174    1.0000 </r>
       <r>   -4.6169    1.0000 </r>
       <r>   -4.6167    1.0000 </r>
       <r>   -4.6162    1.0000 </r>
       <r>   -4.5656    1.0000 </r>
       <r>   -4.5656    1.0000 </r>
       <r>   -4.5067    1.0000 </r>
       <r>   -4.5059    1.0000 </r>
       <r>   -4.5058    1.0000 </r>
       <r>   -4.5050    1.0000 </r>
       <r>   -4.3588    1.0000 </r>
       <r>   -4.3587    1.0000 </r>
       <r>   -4.2330    1.0000 </r>
       <r>   -4.2322    1.0000 </r>
       <r>   -4.0108    1.0000 </r>
       <r>   -4.0102    1.0000 </r>
       <r>   -4.0101    1.0000 </r>
       <r>   -4.0095    1.0000 </r>
       <r>   -3.9534    1.0000 </r>
       <r>   -3.9526    1.0000 </r>
       <r>   -3.8044    1.0000 </r>
       <r>   -3.8044    1.0000 </r>
       <r>   -3.6826    1.0000 </r>
       <r>   -3.6820    1.0000 </r>
       <r>   -3.6499    1.0000 </r>
       <r>   -3.6499    1.0000 </r>
       <r>   -3.5440    1.0000 </r>
       <r>   -3.5434    1.0000 </r>
       <r>   -3.5433    1.0000 </r>
       <r>   -3.5426    1.0000 </r>
       <r>   -3.3437    1.0000 </r>
       <r>   -3.3433    1.0000 </r>
       <r>   -3.3431    1.0000 </r>
       <r>   -3.3427    1.0000 </r>
       <r>   -3.2438    1.0000 </r>
       <r>   -3.2430    1.0000 </r>
       <r>   -3.0365    1.0000 </r>
       <r>   -3.0356    1.0000 </r>
       <r>   -3.0022    1.0000 </r>
       <r>   -2.9982    1.0000 </r>
       <r>   -2.9976    1.0000 </r>
       <r>   -2.9974    1.0000 </r>
       <r>   -2.9968    1.0000 </r>
       <r>   -2.9931    1.0000 </r>
       <r>   -2.9925    1.0000 </r>
       <r>   -2.6291    1.0000 </r>
       <r>   -2.6283    1.0000 </r>
       <r>   -2.6283    1.0000 </r>
       <r>   -2.6276    1.0000 </r>
       <r>   -2.4817    1.0000 </r>
       <r>   -2.4814    1.0000 </r>
       <r>   -2.2745    1.0000 </r>
       <r>   -1.8710    1.0000 </r>
       <r>   -1.5780    1.0000 </r>
       <r>   -1.5770    1.0000 </r>
       <r>   -1.4702    1.0000 </r>
       <r>   -1.4693    1.0000 </r>
       <r>   -1.4693    1.0000 </r>
       <r>   -1.4684    1.0000 </r>
       <r>   -1.1643    1.0000 </r>
       <r>   -1.1632    1.0000 </r>
       <r>   -1.1516    1.0000 </r>
       <r>   -1.1505    1.0000 </r>
       <r>   -1.1317    1.0000 </r>
       <r>   -1.1313    1.0000 </r>
       <r>   -1.1313    1.0000 </r>
       <r>   -1.1309    1.0000 </r>
       <r>   -1.0974    1.0000 </r>
       <r>   -1.0628    1.0000 </r>
       <r>   -1.0628    1.0000 </r>
       <r>   -0.9801    1.0000 </r>
       <r>   -0.9799    1.0000 </r>
       <r>   -0.8580    1.0000 </r>
       <r>   -0.8578    1.0000 </r>
       <r>   -0.8577    1.0000 </r>
       <r>   -0.8575    1.0000 </r>
       <r>   -0.8378    1.0000 </r>
       <r>   -0.8368    1.0000 </r>
       <r>   -0.7475    1.0000 </r>
       <r>   -0.7465    1.0000 </r>
       <r>   -0.7463    1.0000 </r>
       <r>   -0.7454    1.0000 </r>
       <r>   -0.6673    1.0000 </r>
       <r>   -0.6663    1.0000 </r>
       <r>   -0.6661    1.0000 </r>
       <r>   -0.6651    1.0000 </r>
       <r>   -0.4032    1.0000 </r>
       <r>   -0.4032    1.0000 </r>
       <r>   -0.1470    1.0000 </r>
       <r>   -0.1470    1.0000 </r>
       <r>   -0.0308    1.0000 </r>
       <r>   -0.0308    1.0000 </r>
       <r>    0.0076    1.0000 </r>
       <r>    0.0088    1.0000 </r>
       <r>    0.3990    1.0000 </r>
       <r>    0.3998    1.0000 </r>
       <r>    0.3999    1.0000 </r>
       <r>    0.4007    1.0000 </r>
       <r>    0.4545    1.0000 </r>
       <r>    0.4548    1.0000 </r>
       <r>    0.6773    1.0000 </r>
       <r>    0.6778    1.0000 </r>
       <r>    0.6778    1.0000 </r>
       <r>    0.6782    1.0000 </r>
       <r>    1.2131    1.0000 </r>
       <r>    1.2131    1.0000 </r>
       <r>    1.3056    1.0000 </r>
       <r>    1.4657    1.0000 </r>
       <r>    1.4661    1.0000 </r>
       <r>    1.4728    1.0000 </r>
       <r>    1.4732    1.0000 </r>
       <r>    1.4735    1.0000 </r>
       <r>    1.4740    1.0000 </r>
       <r>    1.6749    1.0000 </r>
       <r>    1.6755    1.0000 </r>
       <r>    1.6757    1.0000 </r>
       <r>    1.6764    1.0000 </r>
       <r>    1.6915    1.0000 </r>
       <r>    1.6916    1.0000 </r>
       <r>    1.7841    1.0000 </r>
       <r>    1.7842    1.0000 </r>
       <r>    1.7846    1.0000 </r>
       <r>    1.7847    1.0000 </r>
       <r>    1.8595    1.0000 </r>
       <r>    1.9190    1.0000 </r>
       <r>    1.9326    1.0000 </r>
       <r>    1.9333    1.0000 </r>
       <r>    1.9500    1.0000 </r>
       <r>    1.9503    1.0000 </r>
       <r>    1.9505    1.0000 </r>
       <r>    1.9508    1.0000 </r>
       <r>    2.0967    1.0000 </r>
       <r>    2.0969    1.0000 </r>
       <r>    2.0971    1.0000 </r>
       <r>    2.0973    1.0000 </r>
       <r>    2.1258    1.0000 </r>
       <r>    2.1261    1.0000 </r>
       <r>    2.5405    1.0000 </r>
       <r>    2.5408    1.0000 </r>
       <r>    2.5603    1.0000 </r>
       <r>    2.5605    1.0000 </r>
       <r>    2.6763    1.0000 </r>
       <r>    2.6764    1.0000 </r>
       <r>    2.7100    1.0000 </r>
       <r>    2.7104    1.0000 </r>
       <r>    2.7106    1.0000 </r>
       <r>    2.7110    1.0000 </r>
       <r>    2.7536    1.0000 </r>
       <r>    2.7541    1.0000 </r>
       <r>    2.7758    1.0000 </r>
       <r>    2.7758    1.0000 </r>
       <r>    2.8080    1.0000 </r>
       <r>    2.8082    1.0000 </r>
       <r>    2.8083    1.0000 </r>
       <r>    2.8085    1.0000 </r>
       <r>    2.8382    1.0000 </r>
       <r>    2.8388    1.0000 </r>
       <r>    2.8948    1.0000 </r>
       <r>    2.8954    1.0000 </r>
       <r>    2.9030    1.0000 </r>
       <r>    2.9036    1.0000 </r>
       <r>    2.9187    1.0000 </r>
       <r>    2.9194    1.0000 </r>
       <r>    3.0109    1.0000 </r>
       <r>    3.0444    1.0000 </r>
       <r>    3.0448    1.0000 </r>
       <r>    3.0450    1.0000 </r>
       <r>    3.0454    1.0000 </r>
       <r>    3.0582    1.0000 </r>
       <r>    3.0584    1.0000 </r>
       <r>    3.0942    1.0000 </r>
       <r>    3.0945    1.0000 </r>
       <r>    3.0951    1.0000 </r>
       <r>    3.0953    1.0000 </r>
       <r>    3.1086    1.0000 </r>
       <r>    3.1087    1.0000 </r>
       <r>    3.2233    1.0000 </r>
       <r>    3.2236    1.0000 </r>
       <r>    3.2240    1.0000 </r>
       <r>    3.2243    1.0000 </r>
       <r>    3.2464    1.0000 </r>
       <r>    3.2468    1.0000 </r>
       <r>    3.2471    1.0000 </r>
       <r>    3.2475    1.0000 </r>
       <r>    3.2570    1.0000 </r>
       <r>    3.2571    1.0000 </r>
       <r>    3.2590    1.0000 </r>
       <r>    3.3725    1.0000 </r>
       <r>    3.3730    1.0000 </r>
       <r>    3.4939    1.0000 </r>
       <r>    3.4941    1.0000 </r>
       <r>    3.4942    1.0000 </r>
       <r>    3.4944    1.0000 </r>
       <r>    3.5471    1.0000 </r>
       <r>    3.6556    1.0000 </r>
       <r>    3.6556    1.0000 </r>
       <r>    3.6862    1.0000 </r>
       <r>    3.6866    1.0000 </r>
       <r>    3.6867    1.0000 </r>
       <r>    3.6871    1.0000 </r>
       <r>    3.6929    1.0000 </r>
       <r>    3.6929    1.0000 </r>
       <r>    3.7402    1.0000 </r>
       <r>    3.7406    1.0000 </r>
       <r>    3.7409    1.0000 </r>
       <r>    3.7413    1.0000 </r>
       <r>    3.7975    1.0000 </r>
       <r>    3.7975    1.0000 </r>
       <r>    3.9073    1.0000 </r>
       <r>    3.9073    1.0000 </r>
       <r>    4.0018    1.0000 </r>
       <r>    4.0026    1.0000 </r>
       <r>    4.0209    1.0000 </r>
       <r>    4.0210    1.0000 </r>
       <r>    4.0268    1.0000 </r>
       <r>    4.0546    1.0000 </r>
       <r>    4.0546    1.0000 </r>
       <r>    4.0611    1.0000 </r>
       <r>    4.0612    1.0000 </r>
       <r>    4.0909    1.0000 </r>
       <r>    4.0913    1.0000 </r>
       <r>    4.0913    1.0000 </r>
       <r>    4.0917    1.0000 </r>
       <r>    4.2364    1.0000 </r>
       <r>    4.2364    1.0000 </r>
       <r>    4.3308    1.0000 </r>
       <r>    4.3313    1.0000 </r>
       <r>    4.3314    1.0000 </r>
       <r>    4.3319    1.0000 </r>
       <r>    4.6393    1.0000 </r>
       <r>    4.6394    1.0000 </r>
       <r>    4.6499    1.0000 </r>
       <r>    4.6506    1.0000 </r>
       <r>    4.6510    1.0000 </r>
       <r>    4.6518    1.0000 </r>
       <r>    4.7750    1.0000 </r>
       <r>    4.8413    1.0000 </r>
       <r>    4.8413    1.0000 </r>
       <r>    4.9197    1.0000 </r>
       <r>    4.9198    1.0000 </r>
       <r>    5.0194    1.0000 </r>
       <r>    5.0194    1.0000 </r>
       <r>    5.0592    1.0000 </r>
       <r>    5.4984    1.0000 </r>
       <r>    6.5361    0.0000 </r>
       <r>    6.5361    0.0000 </r>
       <r>    6.5856    0.0000 </r>
       <r>    6.8618    0.0000 </r>
       <r>    6.8626    0.0000 </r>
       <r>    7.0259    0.0000 </r>
       <r>    7.0261    0.0000 </r>
       <r>    7.1529    0.0000 </r>
       <r>    7.1532    0.0000 </r>
       <r>    7.1536    0.0000 </r>
       <r>    7.1539    0.0000 </r>
       <r>    7.2039    0.0000 </r>
       <r>    7.3769    0.0000 </r>
       <r>    7.3771    0.0000 </r>
       <r>    7.3858    0.0000 </r>
       <r>    7.3862    0.0000 </r>
       <r>    7.5052    0.0000 </r>
       <r>    7.5052    0.0000 </r>
       <r>    7.5847    0.0000 </r>
       <r>    7.5848    0.0000 </r>
       <r>    7.6854    0.0000 </r>
       <r>    7.6854    0.0000 </r>
       <r>    7.7426    0.0000 </r>
       <r>    7.7430    0.0000 </r>
       <r>    7.7434    0.0000 </r>
       <r>    7.7437    0.0000 </r>
       <r>    7.7564    0.0000 </r>
       <r>    7.7564    0.0000 </r>
       <r>    7.7621    0.0000 </r>
       <r>    7.7624    0.0000 </r>
       <r>    7.7626    0.0000 </r>
       <r>    7.7630    0.0000 </r>
       <r>    7.7912    0.0000 </r>
       <r>    7.7912    0.0000 </r>
       <r>    7.9219    0.0000 </r>
       <r>    7.9219    0.0000 </r>
       <r>    7.9500    0.0000 </r>
       <r>    7.9508    0.0000 </r>
       <r>    8.1130    0.0000 </r>
       <r>    8.1133    0.0000 </r>
       <r>    8.1451    0.0000 </r>
       <r>    8.1453    0.0000 </r>
       <r>    8.1652    0.0000 </r>
       <r>    8.1720    0.0000 </r>
       <r>    8.1724    0.0000 </r>
       <r>    8.1726    0.0000 </r>
       <r>    8.1730    0.0000 </r>
       <r>    8.2189    0.0000 </r>
       <r>    8.2192    0.0000 </r>
       <r>    8.2194    0.0000 </r>
       <r>    8.2196    0.0000 </r>
       <r>    8.2277    0.0000 </r>
       <r>    8.2281    0.0000 </r>
       <r>    8.2286    0.0000 </r>
       <r>    8.2290    0.0000 </r>
       <r>    8.2410    0.0000 </r>
       <r>    8.2411    0.0000 </r>
       <r>    8.2413    0.0000 </r>
       <r>    8.2414    0.0000 </r>
       <r>    8.2613    0.0000 </r>
       <r>    8.2618    0.0000 </r>
       <r>    8.2622    0.0000 </r>
       <r>    8.2624    0.0000 </r>
       <r>    8.2972    0.0000 </r>
       <r>    8.2978    0.0000 </r>
       <r>    8.4308    0.0000 </r>
      </set>
      <set comment="kpoint 9">
       <r>   -5.9611    1.0000 </r>
       <r>   -5.8725    1.0000 </r>
       <r>   -5.8720    1.0000 </r>
       <r>   -5.6086    1.0000 </r>
       <r>   -5.6082    1.0000 </r>
       <r>   -5.2668    1.0000 </r>
       <r>   -5.1808    1.0000 </r>
       <r>   -5.1803    1.0000 </r>
       <r>   -5.1802    1.0000 </r>
       <r>   -5.1796    1.0000 </r>
       <r>   -4.9237    1.0000 </r>
       <r>   -4.9230    1.0000 </r>
       <r>   -4.6174    1.0000 </r>
       <r>   -4.6169    1.0000 </r>
       <r>   -4.6168    1.0000 </r>
       <r>   -4.6160    1.0000 </r>
       <r>   -4.5659    1.0000 </r>
       <r>   -4.5654    1.0000 </r>
       <r>   -4.5065    1.0000 </r>
       <r>   -4.5059    1.0000 </r>
       <r>   -4.5058    1.0000 </r>
       <r>   -4.5053    1.0000 </r>
       <r>   -4.3592    1.0000 </r>
       <r>   -4.3584    1.0000 </r>
       <r>   -4.2328    1.0000 </r>
       <r>   -4.2324    1.0000 </r>
       <r>   -4.0106    1.0000 </r>
       <r>   -4.0102    1.0000 </r>
       <r>   -4.0101    1.0000 </r>
       <r>   -4.0093    1.0000 </r>
       <r>   -3.9533    1.0000 </r>
       <r>   -3.9527    1.0000 </r>
       <r>   -3.8048    1.0000 </r>
       <r>   -3.8040    1.0000 </r>
       <r>   -3.6825    1.0000 </r>
       <r>   -3.6819    1.0000 </r>
       <r>   -3.6503    1.0000 </r>
       <r>   -3.6498    1.0000 </r>
       <r>   -3.5441    1.0000 </r>
       <r>   -3.5434    1.0000 </r>
       <r>   -3.5433    1.0000 </r>
       <r>   -3.5428    1.0000 </r>
       <r>   -3.3438    1.0000 </r>
       <r>   -3.3432    1.0000 </r>
       <r>   -3.3432    1.0000 </r>
       <r>   -3.3422    1.0000 </r>
       <r>   -3.2436    1.0000 </r>
       <r>   -3.2430    1.0000 </r>
       <r>   -3.0364    1.0000 </r>
       <r>   -3.0360    1.0000 </r>
       <r>   -3.0023    1.0000 </r>
       <r>   -2.9983    1.0000 </r>
       <r>   -2.9975    1.0000 </r>
       <r>   -2.9975    1.0000 </r>
       <r>   -2.9970    1.0000 </r>
       <r>   -2.9931    1.0000 </r>
       <r>   -2.9924    1.0000 </r>
       <r>   -2.6289    1.0000 </r>
       <r>   -2.6283    1.0000 </r>
       <r>   -2.6283    1.0000 </r>
       <r>   -2.6277    1.0000 </r>
       <r>   -2.4817    1.0000 </r>
       <r>   -2.4809    1.0000 </r>
       <r>   -2.2748    1.0000 </r>
       <r>   -1.8707    1.0000 </r>
       <r>   -1.5782    1.0000 </r>
       <r>   -1.5775    1.0000 </r>
       <r>   -1.4700    1.0000 </r>
       <r>   -1.4693    1.0000 </r>
       <r>   -1.4693    1.0000 </r>
       <r>   -1.4690    1.0000 </r>
       <r>   -1.1643    1.0000 </r>
       <r>   -1.1637    1.0000 </r>
       <r>   -1.1517    1.0000 </r>
       <r>   -1.1510    1.0000 </r>
       <r>   -1.1316    1.0000 </r>
       <r>   -1.1314    1.0000 </r>
       <r>   -1.1313    1.0000 </r>
       <r>   -1.1303    1.0000 </r>
       <r>   -1.0971    1.0000 </r>
       <r>   -1.0628    1.0000 </r>
       <r>   -1.0622    1.0000 </r>
       <r>   -0.9802    1.0000 </r>
       <r>   -0.9793    1.0000 </r>
       <r>   -0.8580    1.0000 </r>
       <r>   -0.8579    1.0000 </r>
       <r>   -0.8578    1.0000 </r>
       <r>   -0.8566    1.0000 </r>
       <r>   -0.8377    1.0000 </r>
       <r>   -0.8372    1.0000 </r>
       <r>   -0.7473    1.0000 </r>
       <r>   -0.7465    1.0000 </r>
       <r>   -0.7463    1.0000 </r>
       <r>   -0.7460    1.0000 </r>
       <r>   -0.6674    1.0000 </r>
       <r>   -0.6664    1.0000 </r>
       <r>   -0.6662    1.0000 </r>
       <r>   -0.6660    1.0000 </r>
       <r>   -0.4033    1.0000 </r>
       <r>   -0.4026    1.0000 </r>
       <r>   -0.1472    1.0000 </r>
       <r>   -0.1467    1.0000 </r>
       <r>   -0.0309    1.0000 </r>
       <r>   -0.0302    1.0000 </r>
       <r>    0.0076    1.0000 </r>
       <r>    0.0082    1.0000 </r>
       <r>    0.3990    1.0000 </r>
       <r>    0.3997    1.0000 </r>
       <r>    0.4000    1.0000 </r>
       <r>    0.4002    1.0000 </r>
       <r>    0.4545    1.0000 </r>
       <r>    0.4553    1.0000 </r>
       <r>    0.6773    1.0000 </r>
       <r>    0.6778    1.0000 </r>
       <r>    0.6778    1.0000 </r>
       <r>    0.6788    1.0000 </r>
       <r>    1.2128    1.0000 </r>
       <r>    1.2135    1.0000 </r>
       <r>    1.3056    1.0000 </r>
       <r>    1.4655    1.0000 </r>
       <r>    1.4659    1.0000 </r>
       <r>    1.4730    1.0000 </r>
       <r>    1.4732    1.0000 </r>
       <r>    1.4733    1.0000 </r>
       <r>    1.4738    1.0000 </r>
       <r>    1.6748    1.0000 </r>
       <r>    1.6755    1.0000 </r>
       <r>    1.6758    1.0000 </r>
       <r>    1.6759    1.0000 </r>
       <r>    1.6915    1.0000 </r>
       <r>    1.6919    1.0000 </r>
       <r>    1.7840    1.0000 </r>
       <r>    1.7842    1.0000 </r>
       <r>    1.7846    1.0000 </r>
       <r>    1.7848    1.0000 </r>
       <r>    1.8597    1.0000 </r>
       <r>    1.9193    1.0000 </r>
       <r>    1.9328    1.0000 </r>
       <r>    1.9332    1.0000 </r>
       <r>    1.9501    1.0000 </r>
       <r>    1.9503    1.0000 </r>
       <r>    1.9505    1.0000 </r>
       <r>    1.9508    1.0000 </r>
       <r>    2.0963    1.0000 </r>
       <r>    2.0966    1.0000 </r>
       <r>    2.0970    1.0000 </r>
       <r>    2.0972    1.0000 </r>
       <r>    2.1258    1.0000 </r>
       <r>    2.1261    1.0000 </r>
       <r>    2.5403    1.0000 </r>
       <r>    2.5405    1.0000 </r>
       <r>    2.5603    1.0000 </r>
       <r>    2.5605    1.0000 </r>
       <r>    2.6763    1.0000 </r>
       <r>    2.6766    1.0000 </r>
       <r>    2.7101    1.0000 </r>
       <r>    2.7105    1.0000 </r>
       <r>    2.7106    1.0000 </r>
       <r>    2.7108    1.0000 </r>
       <r>    2.7537    1.0000 </r>
       <r>    2.7542    1.0000 </r>
       <r>    2.7757    1.0000 </r>
       <r>    2.7763    1.0000 </r>
       <r>    2.8076    1.0000 </r>
       <r>    2.8080    1.0000 </r>
       <r>    2.8083    1.0000 </r>
       <r>    2.8084    1.0000 </r>
       <r>    2.8383    1.0000 </r>
       <r>    2.8387    1.0000 </r>
       <r>    2.8945    1.0000 </r>
       <r>    2.8950    1.0000 </r>
       <r>    2.9032    1.0000 </r>
       <r>    2.9038    1.0000 </r>
       <r>    2.9187    1.0000 </r>
       <r>    2.9191    1.0000 </r>
       <r>    3.0107    1.0000 </r>
       <r>    3.0445    1.0000 </r>
       <r>    3.0448    1.0000 </r>
       <r>    3.0450    1.0000 </r>
       <r>    3.0456    1.0000 </r>
       <r>    3.0583    1.0000 </r>
       <r>    3.0590    1.0000 </r>
       <r>    3.0942    1.0000 </r>
       <r>    3.0946    1.0000 </r>
       <r>    3.0949    1.0000 </r>
       <r>    3.0951    1.0000 </r>
       <r>    3.1081    1.0000 </r>
       <r>    3.1088    1.0000 </r>
       <r>    3.2233    1.0000 </r>
       <r>    3.2237    1.0000 </r>
       <r>    3.2239    1.0000 </r>
       <r>    3.2246    1.0000 </r>
       <r>    3.2465    1.0000 </r>
       <r>    3.2467    1.0000 </r>
       <r>    3.2470    1.0000 </r>
       <r>    3.2474    1.0000 </r>
       <r>    3.2568    1.0000 </r>
       <r>    3.2570    1.0000 </r>
       <r>    3.2589    1.0000 </r>
       <r>    3.3726    1.0000 </r>
       <r>    3.3734    1.0000 </r>
       <r>    3.4939    1.0000 </r>
       <r>    3.4939    1.0000 </r>
       <r>    3.4942    1.0000 </r>
       <r>    3.4952    1.0000 </r>
       <r>    3.5468    1.0000 </r>
       <r>    3.6555    1.0000 </r>
       <r>    3.6561    1.0000 </r>
       <r>    3.6864    1.0000 </r>
       <r>    3.6866    1.0000 </r>
       <r>    3.6868    1.0000 </r>
       <r>    3.6872    1.0000 </r>
       <r>    3.6927    1.0000 </r>
       <r>    3.6934    1.0000 </r>
       <r>    3.7405    1.0000 </r>
       <r>    3.7407    1.0000 </r>
       <r>    3.7409    1.0000 </r>
       <r>    3.7413    1.0000 </r>
       <r>    3.7974    1.0000 </r>
       <r>    3.7978    1.0000 </r>
       <r>    3.9066    1.0000 </r>
       <r>    3.9075    1.0000 </r>
       <r>    4.0018    1.0000 </r>
       <r>    4.0022    1.0000 </r>
       <r>    4.0209    1.0000 </r>
       <r>    4.0211    1.0000 </r>
       <r>    4.0272    1.0000 </r>
       <r>    4.0540    1.0000 </r>
       <r>    4.0547    1.0000 </r>
       <r>    4.0611    1.0000 </r>
       <r>    4.0615    1.0000 </r>
       <r>    4.0911    1.0000 </r>
       <r>    4.0912    1.0000 </r>
       <r>    4.0913    1.0000 </r>
       <r>    4.0927    1.0000 </r>
       <r>    4.2357    1.0000 </r>
       <r>    4.2366    1.0000 </r>
       <r>    4.3308    1.0000 </r>
       <r>    4.3312    1.0000 </r>
       <r>    4.3313    1.0000 </r>
       <r>    4.3322    1.0000 </r>
       <r>    4.6386    1.0000 </r>
       <r>    4.6395    1.0000 </r>
       <r>    4.6501    1.0000 </r>
       <r>    4.6507    1.0000 </r>
       <r>    4.6509    1.0000 </r>
       <r>    4.6514    1.0000 </r>
       <r>    4.7750    1.0000 </r>
       <r>    4.8405    1.0000 </r>
       <r>    4.8415    1.0000 </r>
       <r>    4.9196    1.0000 </r>
       <r>    4.9206    1.0000 </r>
       <r>    5.0193    1.0000 </r>
       <r>    5.0201    1.0000 </r>
       <r>    5.0588    1.0000 </r>
       <r>    5.4979    1.0000 </r>
       <r>    6.5357    0.0000 </r>
       <r>    6.5362    0.0000 </r>
       <r>    6.5853    0.0000 </r>
       <r>    6.8619    0.0000 </r>
       <r>    6.8623    0.0000 </r>
       <r>    7.0258    0.0000 </r>
       <r>    7.0263    0.0000 </r>
       <r>    7.1528    0.0000 </r>
       <r>    7.1533    0.0000 </r>
       <r>    7.1536    0.0000 </r>
       <r>    7.1539    0.0000 </r>
       <r>    7.2036    0.0000 </r>
       <r>    7.3767    0.0000 </r>
       <r>    7.3773    0.0000 </r>
       <r>    7.3859    0.0000 </r>
       <r>    7.3866    0.0000 </r>
       <r>    7.5051    0.0000 </r>
       <r>    7.5056    0.0000 </r>
       <r>    7.5843    0.0000 </r>
       <r>    7.5848    0.0000 </r>
       <r>    7.6852    0.0000 </r>
       <r>    7.6855    0.0000 </r>
       <r>    7.7427    0.0000 </r>
       <r>    7.7430    0.0000 </r>
       <r>    7.7432    0.0000 </r>
       <r>    7.7437    0.0000 </r>
       <r>    7.7562    0.0000 </r>
       <r>    7.7564    0.0000 </r>
       <r>    7.7621    0.0000 </r>
       <r>    7.7625    0.0000 </r>
       <r>    7.7626    0.0000 </r>
       <r>    7.7631    0.0000 </r>
       <r>    7.7906    0.0000 </r>
       <r>    7.7912    0.0000 </r>
       <r>    7.9217    0.0000 </r>
       <r>    7.9220    0.0000 </r>
       <r>    7.9500    0.0000 </r>
       <r>    7.9506    0.0000 </r>
       <r>    8.1130    0.0000 </r>
       <r>    8.1133    0.0000 </r>
       <r>    8.1453    0.0000 </r>
       <r>    8.1455    0.0000 </r>
       <r>    8.1654    0.0000 </r>
       <r>    8.1721    0.0000 </r>
       <r>    8.1724    0.0000 </r>
       <r>    8.1727    0.0000 </r>
       <r>    8.1728    0.0000 </r>
       <r>    8.2189    0.0000 </r>
       <r>    8.2192    0.0000 </r>
       <r>    8.2196    0.0000 </r>
       <r>    8.2198    0.0000 </r>
       <r>    8.2278    0.0000 </r>
       <r>    8.2282    0.0000 </r>
       <r>    8.2285    0.0000 </r>
       <r>    8.2288    0.0000 </r>
       <r>    8.2409    0.0000 </r>
       <r>    8.2410    0.0000 </r>
       <r>    8.2413    0.0000 </r>
       <r>    8.2421    0.0000 </r>
       <r>    8.2613    0.0000 </r>
       <r>    8.2618    0.0000 </r>
       <r>    8.2622    0.0000 </r>
       <r>    8.2626    0.0000 </r>
       <r>    8.2970    0.0000 </r>
       <r>    8.2979    0.0000 </r>
       <r>    8.4261    0.0000 </r>
      </set>
      <set comment="kpoint 10">
       <r>   -5.9611    1.0000 </r>
       <r>   -5.8722    1.0000 </r>
       <r>   -5.8722    1.0000 </r>
       <r>   -5.6084    1.0000 </r>
       <r>   -5.6084    1.0000 </r>
       <r>   -5.2668    1.0000 </r>
       <r>   -5.1803    1.0000 </r>
       <r>   -5.1802    1.0000 </r>
       <r>   -5.1802    1.0000 </r>
       <r>   -5.1802    1.0000 </r>
       <r>   -4.9234    1.0000 </r>
       <r>   -4.9233    1.0000 </r>
       <r>   -4.6168    1.0000 </r>
       <r>   -4.6168    1.0000 </r>
       <r>   -4.6168    1.0000 </r>
       <r>   -4.6168    1.0000 </r>
       <r>   -4.5657    1.0000 </r>
       <r>   -4.5655    1.0000 </r>
       <r>   -4.5060    1.0000 </r>
       <r>   -4.5059    1.0000 </r>
       <r>   -4.5058    1.0000 </r>
       <r>   -4.5057    1.0000 </r>
       <r>   -4.3589    1.0000 </r>
       <r>   -4.3586    1.0000 </r>
       <r>   -4.2326    1.0000 </r>
       <r>   -4.2326    1.0000 </r>
       <r>   -4.0102    1.0000 </r>
       <r>   -4.0101    1.0000 </r>
       <r>   -4.0101    1.0000 </r>
       <r>   -4.0101    1.0000 </r>
       <r>   -3.9530    1.0000 </r>
       <r>   -3.9530    1.0000 </r>
       <r>   -3.8044    1.0000 </r>
       <r>   -3.8043    1.0000 </r>
       <r>   -3.6823    1.0000 </r>
       <r>   -3.6823    1.0000 </r>
       <r>   -3.6501    1.0000 </r>
       <r>   -3.6497    1.0000 </r>
       <r>   -3.5437    1.0000 </r>
       <r>   -3.5433    1.0000 </r>
       <r>   -3.5433    1.0000 </r>
       <r>   -3.5429    1.0000 </r>
       <r>   -3.3434    1.0000 </r>
       <r>   -3.3432    1.0000 </r>
       <r>   -3.3432    1.0000 </r>
       <r>   -3.3430    1.0000 </r>
       <r>   -3.2434    1.0000 </r>
       <r>   -3.2434    1.0000 </r>
       <r>   -3.0360    1.0000 </r>
       <r>   -3.0360    1.0000 </r>
       <r>   -3.0021    1.0000 </r>
       <r>   -2.9980    1.0000 </r>
       <r>   -2.9975    1.0000 </r>
       <r>   -2.9975    1.0000 </r>
       <r>   -2.9970    1.0000 </r>
       <r>   -2.9929    1.0000 </r>
       <r>   -2.9928    1.0000 </r>
       <r>   -2.6284    1.0000 </r>
       <r>   -2.6283    1.0000 </r>
       <r>   -2.6283    1.0000 </r>
       <r>   -2.6283    1.0000 </r>
       <r>   -2.4816    1.0000 </r>
       <r>   -2.4816    1.0000 </r>
       <r>   -2.2744    1.0000 </r>
       <r>   -1.8710    1.0000 </r>
       <r>   -1.5775    1.0000 </r>
       <r>   -1.5775    1.0000 </r>
       <r>   -1.4694    1.0000 </r>
       <r>   -1.4694    1.0000 </r>
       <r>   -1.4693    1.0000 </r>
       <r>   -1.4693    1.0000 </r>
       <r>   -1.1638    1.0000 </r>
       <r>   -1.1637    1.0000 </r>
       <r>   -1.1511    1.0000 </r>
       <r>   -1.1511    1.0000 </r>
       <r>   -1.1323    1.0000 </r>
       <r>   -1.1314    1.0000 </r>
       <r>   -1.1313    1.0000 </r>
       <r>   -1.1304    1.0000 </r>
       <r>   -1.0975    1.0000 </r>
       <r>   -1.0633    1.0000 </r>
       <r>   -1.0623    1.0000 </r>
       <r>   -0.9800    1.0000 </r>
       <r>   -0.9800    1.0000 </r>
       <r>   -0.8588    1.0000 </r>
       <r>   -0.8578    1.0000 </r>
       <r>   -0.8578    1.0000 </r>
       <r>   -0.8567    1.0000 </r>
       <r>   -0.8373    1.0000 </r>
       <r>   -0.8373    1.0000 </r>
       <r>   -0.7468    1.0000 </r>
       <r>   -0.7465    1.0000 </r>
       <r>   -0.7464    1.0000 </r>
       <r>   -0.7460    1.0000 </r>
       <r>   -0.6663    1.0000 </r>
       <r>   -0.6663    1.0000 </r>
       <r>   -0.6662    1.0000 </r>
       <r>   -0.6662    1.0000 </r>
       <r>   -0.4036    1.0000 </r>
       <r>   -0.4027    1.0000 </r>
       <r>   -0.1472    1.0000 </r>
       <r>   -0.1468    1.0000 </r>
       <r>   -0.0311    1.0000 </r>
       <r>   -0.0304    1.0000 </r>
       <r>    0.0082    1.0000 </r>
       <r>    0.0082    1.0000 </r>
       <r>    0.3997    1.0000 </r>
       <r>    0.3998    1.0000 </r>
       <r>    0.3999    1.0000 </r>
       <r>    0.4000    1.0000 </r>
       <r>    0.4547    1.0000 </r>
       <r>    0.4547    1.0000 </r>
       <r>    0.6771    1.0000 </r>
       <r>    0.6778    1.0000 </r>
       <r>    0.6778    1.0000 </r>
       <r>    0.6785    1.0000 </r>
       <r>    1.2126    1.0000 </r>
       <r>    1.2135    1.0000 </r>
       <r>    1.3056    1.0000 </r>
       <r>    1.4659    1.0000 </r>
       <r>    1.4659    1.0000 </r>
       <r>    1.4731    1.0000 </r>
       <r>    1.4732    1.0000 </r>
       <r>    1.4736    1.0000 </r>
       <r>    1.4736    1.0000 </r>
       <r>    1.6752    1.0000 </r>
       <r>    1.6756    1.0000 </r>
       <r>    1.6756    1.0000 </r>
       <r>    1.6760    1.0000 </r>
       <r>    1.6915    1.0000 </r>
       <r>    1.6916    1.0000 </r>
       <r>    1.7842    1.0000 </r>
       <r>    1.7843    1.0000 </r>
       <r>    1.7846    1.0000 </r>
       <r>    1.7846    1.0000 </r>
       <r>    1.8595    1.0000 </r>
       <r>    1.9189    1.0000 </r>
       <r>    1.9330    1.0000 </r>
       <r>    1.9330    1.0000 </r>
       <r>    1.9501    1.0000 </r>
       <r>    1.9502    1.0000 </r>
       <r>    1.9505    1.0000 </r>
       <r>    1.9507    1.0000 </r>
       <r>    2.0967    1.0000 </r>
       <r>    2.0967    1.0000 </r>
       <r>    2.0973    1.0000 </r>
       <r>    2.0973    1.0000 </r>
       <r>    2.1259    1.0000 </r>
       <r>    2.1259    1.0000 </r>
       <r>    2.5406    1.0000 </r>
       <r>    2.5406    1.0000 </r>
       <r>    2.5604    1.0000 </r>
       <r>    2.5604    1.0000 </r>
       <r>    2.6760    1.0000 </r>
       <r>    2.6767    1.0000 </r>
       <r>    2.7102    1.0000 </r>
       <r>    2.7105    1.0000 </r>
       <r>    2.7106    1.0000 </r>
       <r>    2.7108    1.0000 </r>
       <r>    2.7539    1.0000 </r>
       <r>    2.7539    1.0000 </r>
       <r>    2.7756    1.0000 </r>
       <r>    2.7760    1.0000 </r>
       <r>    2.8080    1.0000 </r>
       <r>    2.8080    1.0000 </r>
       <r>    2.8085    1.0000 </r>
       <r>    2.8085    1.0000 </r>
       <r>    2.8385    1.0000 </r>
       <r>    2.8385    1.0000 </r>
       <r>    2.8951    1.0000 </r>
       <r>    2.8951    1.0000 </r>
       <r>    2.9033    1.0000 </r>
       <r>    2.9033    1.0000 </r>
       <r>    2.9190    1.0000 </r>
       <r>    2.9190    1.0000 </r>
       <r>    3.0109    1.0000 </r>
       <r>    3.0444    1.0000 </r>
       <r>    3.0448    1.0000 </r>
       <r>    3.0450    1.0000 </r>
       <r>    3.0454    1.0000 </r>
       <r>    3.0583    1.0000 </r>
       <r>    3.0583    1.0000 </r>
       <r>    3.0944    1.0000 </r>
       <r>    3.0946    1.0000 </r>
       <r>    3.0949    1.0000 </r>
       <r>    3.0952    1.0000 </r>
       <r>    3.1086    1.0000 </r>
       <r>    3.1087    1.0000 </r>
       <r>    3.2234    1.0000 </r>
       <r>    3.2236    1.0000 </r>
       <r>    3.2240    1.0000 </r>
       <r>    3.2242    1.0000 </r>
       <r>    3.2466    1.0000 </r>
       <r>    3.2469    1.0000 </r>
       <r>    3.2470    1.0000 </r>
       <r>    3.2473    1.0000 </r>
       <r>    3.2571    1.0000 </r>
       <r>    3.2571    1.0000 </r>
       <r>    3.2590    1.0000 </r>
       <r>    3.3728    1.0000 </r>
       <r>    3.3728    1.0000 </r>
       <r>    3.4940    1.0000 </r>
       <r>    3.4941    1.0000 </r>
       <r>    3.4942    1.0000 </r>
       <r>    3.4943    1.0000 </r>
       <r>    3.5471    1.0000 </r>
       <r>    3.6550    1.0000 </r>
       <r>    3.6561    1.0000 </r>
       <r>    3.6861    1.0000 </r>
       <r>    3.6865    1.0000 </r>
       <r>    3.6868    1.0000 </r>
       <r>    3.6871    1.0000 </r>
       <r>    3.6925    1.0000 </r>
       <r>    3.6935    1.0000 </r>
       <r>    3.7402    1.0000 </r>
       <r>    3.7406    1.0000 </r>
       <r>    3.7409    1.0000 </r>
       <r>    3.7413    1.0000 </r>
       <r>    3.7971    1.0000 </r>
       <r>    3.7978    1.0000 </r>
       <r>    3.9073    1.0000 </r>
       <r>    3.9074    1.0000 </r>
       <r>    4.0022    1.0000 </r>
       <r>    4.0022    1.0000 </r>
       <r>    4.0208    1.0000 </r>
       <r>    4.0209    1.0000 </r>
       <r>    4.0269    1.0000 </r>
       <r>    4.0546    1.0000 </r>
       <r>    4.0547    1.0000 </r>
       <r>    4.0607    1.0000 </r>
       <r>    4.0616    1.0000 </r>
       <r>    4.0909    1.0000 </r>
       <r>    4.0912    1.0000 </r>
       <r>    4.0914    1.0000 </r>
       <r>    4.0918    1.0000 </r>
       <r>    4.2363    1.0000 </r>
       <r>    4.2365    1.0000 </r>
       <r>    4.3306    1.0000 </r>
       <r>    4.3312    1.0000 </r>
       <r>    4.3314    1.0000 </r>
       <r>    4.3321    1.0000 </r>
       <r>    4.6393    1.0000 </r>
       <r>    4.6396    1.0000 </r>
       <r>    4.6502    1.0000 </r>
       <r>    4.6507    1.0000 </r>
       <r>    4.6509    1.0000 </r>
       <r>    4.6515    1.0000 </r>
       <r>    4.7750    1.0000 </r>
       <r>    4.8413    1.0000 </r>
       <r>    4.8413    1.0000 </r>
       <r>    4.9197    1.0000 </r>
       <r>    4.9197    1.0000 </r>
       <r>    5.0188    1.0000 </r>
       <r>    5.0201    1.0000 </r>
       <r>    5.0592    1.0000 </r>
       <r>    5.4984    1.0000 </r>
       <r>    6.5361    0.0000 </r>
       <r>    6.5362    0.0000 </r>
       <r>    6.5856    0.0000 </r>
       <r>    6.8622    0.0000 </r>
       <r>    6.8622    0.0000 </r>
       <r>    7.0260    0.0000 </r>
       <r>    7.0260    0.0000 </r>
       <r>    7.1531    0.0000 </r>
       <r>    7.1531    0.0000 </r>
       <r>    7.1537    0.0000 </r>
       <r>    7.1537    0.0000 </r>
       <r>    7.2039    0.0000 </r>
       <r>    7.3770    0.0000 </r>
       <r>    7.3770    0.0000 </r>
       <r>    7.3860    0.0000 </r>
       <r>    7.3860    0.0000 </r>
       <r>    7.5052    0.0000 </r>
       <r>    7.5052    0.0000 </r>
       <r>    7.5848    0.0000 </r>
       <r>    7.5848    0.0000 </r>
       <r>    7.6853    0.0000 </r>
       <r>    7.6856    0.0000 </r>
       <r>    7.7428    0.0000 </r>
       <r>    7.7430    0.0000 </r>
       <r>    7.7434    0.0000 </r>
       <r>    7.7436    0.0000 </r>
       <r>    7.7563    0.0000 </r>
       <r>    7.7566    0.0000 </r>
       <r>    7.7621    0.0000 </r>
       <r>    7.7624    0.0000 </r>
       <r>    7.7627    0.0000 </r>
       <r>    7.7629    0.0000 </r>
       <r>    7.7912    0.0000 </r>
       <r>    7.7912    0.0000 </r>
       <r>    7.9219    0.0000 </r>
       <r>    7.9219    0.0000 </r>
       <r>    7.9504    0.0000 </r>
       <r>    7.9504    0.0000 </r>
       <r>    8.1131    0.0000 </r>
       <r>    8.1131    0.0000 </r>
       <r>    8.1452    0.0000 </r>
       <r>    8.1452    0.0000 </r>
       <r>    8.1651    0.0000 </r>
       <r>    8.1721    0.0000 </r>
       <r>    8.1722    0.0000 </r>
       <r>    8.1728    0.0000 </r>
       <r>    8.1729    0.0000 </r>
       <r>    8.2191    0.0000 </r>
       <r>    8.2192    0.0000 </r>
       <r>    8.2194    0.0000 </r>
       <r>    8.2195    0.0000 </r>
       <r>    8.2280    0.0000 </r>
       <r>    8.2282    0.0000 </r>
       <r>    8.2284    0.0000 </r>
       <r>    8.2287    0.0000 </r>
       <r>    8.2409    0.0000 </r>
       <r>    8.2411    0.0000 </r>
       <r>    8.2412    0.0000 </r>
       <r>    8.2416    0.0000 </r>
       <r>    8.2616    0.0000 </r>
       <r>    8.2617    0.0000 </r>
       <r>    8.2621    0.0000 </r>
       <r>    8.2622    0.0000 </r>
       <r>    8.2972    0.0000 </r>
       <r>    8.2978    0.0000 </r>
       <r>    8.4370    0.0000 </r>
      </set>
     </set>
    </set>
   </array>
  </eigenvalues>
  <separator name="orbital magnetization" >
   <v name="MAGDIPOLOUT">      0.00000000      0.00000000      0.00000000</v>
  </separator>
  <dos>
   <i name="efermi">      5.67592624 </i>
   <total>
    <array>
     <dimension dim="1">gridpoints</dimension>
     <dimension dim="2">spin</dimension>
     <field>energy</field>
     <field>total</field>
     <field>integrated</field>
     <set>
      <set comment="spin 1">
       <r>    -6.9462     0.0000     0.0000 </r>
       <r>    -6.8914     0.0000     0.0000 </r>
       <r>    -6.8366     0.0000     0.0000 </r>
       <r>    -6.7818     0.0000     0.0000 </r>
       <r>    -6.7270     0.0000     0.0000 </r>
       <r>    -6.6722     0.0000     0.0000 </r>
       <r>    -6.6173     0.0000     0.0000 </r>
       <r>    -6.5625     0.0000     0.0000 </r>
       <r>    -6.5077     0.0000     0.0000 </r>
       <r>    -6.4529     0.0000     0.0000 </r>
       <r>    -6.3981     0.0000     0.0000 </r>
       <r>    -6.3432     0.0000     0.0000 </r>
       <r>    -6.2884     0.0000     0.0000 </r>
       <r>    -6.2336     0.0000     0.0000 </r>
       <r>    -6.1788     1.3480     0.0739 </r>
       <r>    -6.1240     0.2118     0.0855 </r>
       <r>    -6.0691    18.1116     1.0784 </r>
       <r>    -6.0143     0.5972     1.1111 </r>
       <r>    -5.9595     9.5683     1.6356 </r>
       <r>    -5.9047     6.6466     2.0000 </r>
       <r>    -5.8499    34.6315     3.8985 </r>
       <r>    -5.7950     8.6080     4.3704 </r>
       <r>    -5.7402     0.0665     4.3740 </r>
       <r>    -5.6854     8.0410     4.8148 </r>
       <r>    -5.6306    29.2910     6.4205 </r>
       <r>    -5.5758    35.5683     8.3704 </r>
       <r>    -5.5209     0.0050     8.3706 </r>
       <r>    -5.4661    32.4241    10.1481 </r>
       <r>    -5.4113    10.0269    10.6978 </r>
       <r>    -5.3565    33.2127    12.5185 </r>
       <r>    -5.3017     0.0000    12.5185 </r>
       <r>    -5.2468    16.1758    13.4053 </r>
       <r>    -5.1920     3.1520    13.5781 </r>
       <r>    -5.1372    97.7474    18.9365 </r>
       <r>    -5.0824     4.5362    19.1852 </r>
       <r>    -5.0276    16.9442    20.1141 </r>
       <r>    -4.9727    26.9119    21.5894 </r>
       <r>    -4.9179    46.2074    24.1224 </r>
       <r>    -4.8631     7.4485    24.5307 </r>
       <r>    -4.8083    10.5870    25.1111 </r>
       <r>    -4.7535     4.1124    25.3365 </r>
       <r>    -4.6987    87.1997    30.1168 </r>
       <r>    -4.6438     5.9814    30.4447 </r>
       <r>    -4.5890    64.8671    34.0007 </r>
       <r>    -4.5342    32.4167    35.7779 </r>
       <r>    -4.4794    64.8513    39.3330 </r>
       <r>    -4.4246     0.0000    39.3333 </r>
       <r>    -4.3697     1.9530    39.4404 </r>
       <r>    -4.3149    69.9116    43.2729 </r>
       <r>    -4.2601     1.2064    43.3390 </r>
       <r>    -4.2053    44.2329    45.7639 </r>
       <r>    -4.1505    21.4765    46.9413 </r>
       <r>    -4.0956   123.3179    53.7015 </r>
       <r>    -4.0408     0.0404    53.7037 </r>
       <r>    -3.9860    96.2824    58.9819 </r>
       <r>    -3.9312    33.7180    60.8303 </r>
       <r>    -3.8764    95.6293    66.0726 </r>
       <r>    -3.8215     7.0301    66.4580 </r>
       <r>    -3.7667    38.2383    68.5542 </r>
       <r>    -3.7119    26.3741    70.0000 </r>
       <r>    -3.6571    37.8914    72.0772 </r>
       <r>    -3.6023    92.3306    77.1389 </r>
       <r>    -3.5474    51.3485    79.9538 </r>
       <r>    -3.4926   110.2927    86.0000 </r>
       <r>    -3.4378     0.0069    86.0004 </r>
       <r>    -3.3830    64.8505    89.5555 </r>
       <r>    -3.3282    64.4294    93.0875 </r>
       <r>    -3.2733     8.5378    93.5556 </r>
       <r>    -3.2185    53.6961    96.4992 </r>
       <r>    -3.1637    43.5857    98.8885 </r>
       <r>    -3.1089     0.0048    98.8889 </r>
       <r>    -3.0541    60.9561   102.2305 </r>
       <r>    -2.9992    79.0554   106.5642 </r>
       <r>    -2.9444    70.7816   110.4444 </r>
       <r>    -2.8896     0.0000   110.4444 </r>
       <r>    -2.8348     0.0000   110.4444 </r>
       <r>    -2.7800     0.0026   110.4446 </r>
       <r>    -2.7252    65.1217   114.0145 </r>
       <r>    -2.6703    32.1636   115.7778 </r>
       <r>    -2.6155    62.5746   119.2081 </r>
       <r>    -2.5607     2.2848   119.3333 </r>
       <r>    -2.5059    64.7147   122.8810 </r>
       <r>    -2.4511    32.5741   124.6667 </r>
       <r>    -2.3962     0.0000   124.6667 </r>
       <r>    -2.3414     0.0000   124.6667 </r>
       <r>    -2.2866     0.6969   124.7049 </r>
       <r>    -2.2318    15.5179   125.5556 </r>
       <r>    -2.1770     0.0000   125.5556 </r>
       <r>    -2.1221     7.0916   125.9443 </r>
       <r>    -2.0673    33.4431   127.7776 </r>
       <r>    -2.0125    24.0309   129.0951 </r>
       <r>    -1.9577    24.5203   130.4393 </r>
       <r>    -1.9029     0.0934   130.4444 </r>
       <r>    -1.8480    16.2054   131.3328 </r>
       <r>    -1.7932     0.0094   131.3333 </r>
       <r>    -1.7384     0.0000   131.3333 </r>
       <r>    -1.6836     0.0000   131.3333 </r>
       <r>    -1.6288     0.0000   131.3333 </r>
       <r>    -1.5739    22.4133   132.5620 </r>
       <r>    -1.5191    10.0164   133.1111 </r>
       <r>    -1.4643   142.8296   140.9409 </r>
       <r>    -1.4095    19.3194   142.0000 </r>
       <r>    -1.3547    32.4235   143.7775 </r>
       <r>    -1.2998     0.0019   143.7778 </r>
       <r>    -1.2450    29.4465   145.3920 </r>
       <r>    -1.1902     8.3912   145.8520 </r>
       <r>    -1.1354   115.0952   152.1615 </r>
       <r>    -1.0806    96.3164   157.4415 </r>
       <r>    -1.0258   159.9704   166.2111 </r>
       <r>    -0.9709    60.8451   169.5466 </r>
       <r>    -0.9161    10.1698   170.1041 </r>
       <r>    -0.8613    80.3683   174.5098 </r>
       <r>    -0.8065    78.7387   178.8262 </r>
       <r>    -0.7517    31.1690   180.5349 </r>
       <r>    -0.6968    81.2634   184.9897 </r>
       <r>    -0.6420    68.1185   188.7239 </r>
       <r>    -0.5872    31.3838   190.4444 </r>
       <r>    -0.5324    32.3715   192.2190 </r>
       <r>    -0.4776     0.0582   192.2222 </r>
       <r>    -0.4227     0.0934   192.2273 </r>
       <r>    -0.3679    58.2839   195.4224 </r>
       <r>    -0.3131   133.7128   202.7525 </r>
       <r>    -0.2583     2.4880   202.8889 </r>
       <r>    -0.2035     0.0000   202.8889 </r>
       <r>    -0.1486    13.1981   203.6124 </r>
       <r>    -0.0938    19.2316   204.6667 </r>
       <r>    -0.0390     3.9668   204.8841 </r>
       <r>     0.0158   151.8119   213.2064 </r>
       <r>     0.0706     6.3698   213.5556 </r>
       <r>     0.1255     0.0000   213.5556 </r>
       <r>     0.1803    11.6699   214.1953 </r>
       <r>     0.2351    36.9746   216.2222 </r>
       <r>     0.2899     0.0000   216.2222 </r>
       <r>     0.3447     4.3323   216.4597 </r>
       <r>     0.3996    37.8105   218.5325 </r>
       <r>     0.4544    49.1776   221.2284 </r>
       <r>     0.5092    16.7786   222.1481 </r>
       <r>     0.5640     0.0000   222.1481 </r>
       <r>     0.6188     1.3382   222.2215 </r>
       <r>     0.6737    24.9633   223.5900 </r>
       <r>     0.7285    46.6654   226.1481 </r>
       <r>     0.7833     0.6212   226.1822 </r>
       <r>     0.8381    64.2382   229.7037 </r>
       <r>     0.8929     0.0000   229.7037 </r>
       <r>     0.9477     3.0835   229.8727 </r>
       <r>     1.0026    29.3462   231.4815 </r>
       <r>     1.0574     0.0000   231.4815 </r>
       <r>     1.1122     0.0000   231.4815 </r>
       <r>     1.1670     0.0000   231.4815 </r>
       <r>     1.2218    61.2162   234.8373 </r>
       <r>     1.2767    35.8415   236.8021 </r>
       <r>     1.3315    16.4442   237.7036 </r>
       <r>     1.3863     0.0000   237.7037 </r>
       <r>     1.4411     0.0077   237.7041 </r>
       <r>     1.4959   105.8245   243.5054 </r>
       <r>     1.5508    60.1477   246.8026 </r>
       <r>     1.6056    28.6726   248.3745 </r>
       <r>     1.6604    65.8187   251.9826 </r>
       <r>     1.7152   156.1469   260.5425 </r>
       <r>     1.7700    81.1149   264.9892 </r>
       <r>     1.8249    96.8081   270.2961 </r>
       <r>     1.8797    32.3904   272.0719 </r>
       <r>     1.9345    36.5020   274.0730 </r>
       <r>     1.9893    93.2555   279.1852 </r>
       <r>     2.0441     1.5155   279.2683 </r>
       <r>     2.0990   107.5915   285.1664 </r>
       <r>     2.1538    77.9165   289.4377 </r>
       <r>     2.2086   111.1130   295.5289 </r>
       <r>     2.2634    97.2286   300.8590 </r>
       <r>     2.3182    34.3269   302.7407 </r>
       <r>     2.3731     0.6042   302.7739 </r>
       <r>     2.4279    64.2656   306.2969 </r>
       <r>     2.4827    65.6513   309.8958 </r>
       <r>     2.5375   105.3936   315.6735 </r>
       <r>     2.5923    81.9687   320.1671 </r>
       <r>     2.6472    71.2486   324.0729 </r>
       <r>     2.7020    99.6218   329.5342 </r>
       <r>     2.7568    84.5661   334.1703 </r>
       <r>     2.8116   120.1028   340.7542 </r>
       <r>     2.8664    60.7244   344.0831 </r>
       <r>     2.9212   151.5590   352.3916 </r>
       <r>     2.9761    26.6328   353.8519 </r>
       <r>     3.0309    18.9157   354.8888 </r>
       <r>     3.0857   230.8217   367.5423 </r>
       <r>     3.1405   123.1987   374.2961 </r>
       <r>     3.1953     0.0037   374.2965 </r>
       <r>     3.2502   161.7625   383.1642 </r>
       <r>     3.3050   115.3218   389.4866 </r>
       <r>     3.3598    59.0601   392.7242 </r>
       <r>     3.4146    39.9231   394.9128 </r>
       <r>     3.4694    55.2946   397.9440 </r>
       <r>     3.5243   135.1360   405.3521 </r>
       <r>     3.5791   124.9660   412.2027 </r>
       <r>     3.6339    44.2551   414.6287 </r>
       <r>     3.6887    94.1049   419.7875 </r>
       <r>     3.7435    90.8230   424.7664 </r>
       <r>     3.7984    88.9836   429.6444 </r>
       <r>     3.8532    52.0006   432.4951 </r>
       <r>     3.9080    77.3957   436.7379 </r>
       <r>     3.9628    72.7308   440.7249 </r>
       <r>     4.0176   125.6226   447.6115 </r>
       <r>     4.0725   122.9272   454.3503 </r>
       <r>     4.1273   122.9415   461.0899 </r>
       <r>     4.1821     8.4945   461.5556 </r>
       <r>     4.2369    17.1467   462.4955 </r>
       <r>     4.2917    80.1561   466.8896 </r>
       <r>     4.3466   141.5621   474.6502 </r>
       <r>     4.4014    79.3742   479.0014 </r>
       <r>     4.4562    45.4123   481.4909 </r>
       <r>     4.5110    25.5206   482.8899 </r>
       <r>     4.5658    32.4107   484.6667 </r>
       <r>     4.6207     0.9123   484.7167 </r>
       <r>     4.6755   117.9897   491.1848 </r>
       <r>     4.7303    64.8616   494.7406 </r>
       <r>     4.7851    25.7728   496.1536 </r>
       <r>     4.8399    14.9752   496.9746 </r>
       <r>     4.8947    40.6920   499.2053 </r>
       <r>     4.9496    66.0273   502.8249 </r>
       <r>     5.0044     7.1175   503.2151 </r>
       <r>     5.0592    39.9829   505.4069 </r>
       <r>     5.1140     8.1162   505.8519 </r>
       <r>     5.1688     4.0823   506.0756 </r>
       <r>     5.2237    33.7506   507.9258 </r>
       <r>     5.2785    30.7374   509.6109 </r>
       <r>     5.3333     1.6923   509.7037 </r>
       <r>     5.3881     0.0000   509.7037 </r>
       <r>     5.4429     0.0000   509.7037 </r>
       <r>     5.4978    29.0977   511.2988 </r>
       <r>     5.5526     8.7370   511.7778 </r>
       <r>     5.6074     0.4802   511.8041 </r>
       <r>     5.6622     3.5735   512.0000 </r>
       <r>     5.7170     0.0000   512.0000 </r>
       <r>     5.7719     0.0000   512.0000 </r>
       <r>     5.8267     0.0000   512.0000 </r>
       <r>     5.8815     0.0000   512.0000 </r>
       <r>     5.9363     0.0000   512.0000 </r>
       <r>     5.9911     0.0000   512.0000 </r>
       <r>     6.0460     0.0000   512.0000 </r>
       <r>     6.1008     0.0000   512.0000 </r>
       <r>     6.1556     0.0000   512.0000 </r>
       <r>     6.2104     0.1045   512.0057 </r>
       <r>     6.2652     8.0030   512.4444 </r>
       <r>     6.3201     0.0000   512.4444 </r>
       <r>     6.3749    11.1152   513.0538 </r>
       <r>     6.4297    24.8392   514.4154 </r>
       <r>     6.4845    12.6901   515.1111 </r>
       <r>     6.5393    21.9249   516.3130 </r>
       <r>     6.5942    24.8965   517.6778 </r>
       <r>     6.6490     1.8232   517.7778 </r>
       <r>     6.7038     3.8328   517.9879 </r>
       <r>     6.7586    29.4261   519.6010 </r>
       <r>     6.8134     7.3160   520.0021 </r>
       <r>     6.8682    66.6425   523.6554 </r>
       <r>     6.9231    38.7163   525.7778 </r>
       <r>     6.9779    32.7219   527.5716 </r>
       <r>     7.0327    59.0135   530.8067 </r>
       <r>     7.0875    41.8811   533.1026 </r>
       <r>     7.1423    12.6939   533.7984 </r>
       <r>     7.1972    99.6950   539.2636 </r>
       <r>     7.2520    13.4323   540.0000 </r>
       <r>     7.3068     4.3610   540.2391 </r>
       <r>     7.3616   119.4721   546.7885 </r>
       <r>     7.4164   110.1609   552.8274 </r>
       <r>     7.4713    11.9305   553.4815 </r>
       <r>     7.5261    95.6677   558.7259 </r>
       <r>     7.5809    19.6503   559.8032 </r>
       <r>     7.6357   120.8531   566.4283 </r>
       <r>     7.6905    99.4201   571.8784 </r>
       <r>     7.7454    50.3065   574.6362 </r>
       <r>     7.8002   148.5990   582.7823 </r>
       <r>     7.8550    22.6152   584.0220 </r>
       <r>     7.9098    95.3710   589.2502 </r>
       <r>     7.9646    65.9841   592.8674 </r>
       <r>     8.0195   112.6521   599.0430 </r>
       <r>     8.0743    66.0684   602.6648 </r>
       <r>     8.1291    33.1998   604.4848 </r>
       <r>     8.1839   153.0139   612.8729 </r>
       <r>     8.2387   155.4079   621.3923 </r>
       <r>     8.2936   151.7692   629.7122 </r>
       <r>     8.3484    58.0578   632.8950 </r>
       <r>     8.4032    93.2109   638.0048 </r>
       <r>     8.4580    40.4457   640.2220 </r>
       <r>     8.5128     0.0040   640.2222 </r>
       <r>     8.5677     3.1683   640.3959 </r>
       <r>     8.6225    34.5777   642.2914 </r>
       <r>     8.6773    27.1132   643.7778 </r>
       <r>     8.7321     0.0113   643.7784 </r>
       <r>     8.7869     4.0424   644.0000 </r>
       <r>     8.8417     0.0000   644.0000 </r>
       <r>     8.8966     0.0000   644.0000 </r>
       <r>     8.9514     0.0000   644.0000 </r>
       <r>     9.0062     0.0000   644.0000 </r>
       <r>     9.0610     0.0000   644.0000 </r>
       <r>     9.1158     0.0000   644.0000 </r>
       <r>     9.1707     0.0000   644.0000 </r>
       <r>     9.2255     0.0000   644.0000 </r>
       <r>     9.2803     0.0000   644.0000 </r>
       <r>     9.3351     0.0000   644.0000 </r>
       <r>     9.3899     0.0000   644.0000 </r>
       <r>     9.4448     0.0000   644.0000 </r>
       <r>     9.4996     0.0000   644.0000 </r>
      </set>
     </set>
    </array>
   </total>
  </dos>
 </calculation>
 <structure name="finalpos" >
  <crystal>
   <varray name="basis" >
    <v>      -0.00000000      10.93748001      10.93748001 </v>
    <v>      10.93748001       0.00000000      10.93748001 </v>
    <v>      10.93748001      10.93748001       0.00000000 </v>
   </varray>
   <i name="volume">   2616.86797951 </i>
   <varray name="rec_basis" >
    <v>      -0.04571437       0.04571437       0.04571437 </v>
    <v>       0.04571437      -0.04571437       0.04571437 </v>
    <v>       0.04571437       0.04571437      -0.04571437 </v>
   </varray>
  </crystal>
  <varray name="positions" >
   <v>       0.06314650       0.06250000       0.06250000 </v>
   <v>       0.31250000       0.06250000       0.06250000 </v>
   <v>       0.56250000       0.06250000       0.06250000 </v>
   <v>       0.81250000       0.06250000       0.06250000 </v>
   <v>       0.06250000       0.31250000       0.06250000 </v>
   <v>       0.31250000       0.31250000       0.06250000 </v>
   <v>       0.56250000       0.31250000       0.06250000 </v>
   <v>       0.81250000       0.31250000       0.06250000 </v>
   <v>       0.06250000       0.56250000       0.06250000 </v>
   <v>       0.31250000       0.56250000       0.06250000 </v>
   <v>       0.56250000       0.56250000       0.06250000 </v>
   <v>       0.81250000       0.56250000       0.06250000 </v>
   <v>       0.06250000       0.81250000       0.06250000 </v>
   <v>       0.31250000       0.81250000       0.06250000 </v>
   <v>       0.56250000       0.81250000       0.06250000 </v>
   <v>       0.81250000       0.81250000       0.06250000 </v>
   <v>       0.06250000       0.06250000       0.31250000 </v>
   <v>       0.31250000       0.06250000       0.31250000 </v>
   <v>       0.56250000       0.06250000       0.31250000 </v>
   <v>       0.81250000       0.06250000       0.31250000 </v>
   <v>       0.06250000       0.31250000       0.31250000 </v>
   <v>       0.31250000       0.31250000       0.31250000 </v>
   <v>       0.56250000       0.31250000       0.31250000 </v>
   <v>       0.81250000       0.31250000       0.31250000 </v>
   <v>       0.06250000       0.56250000       0.31250000 </v>
   <v>       0.31250000       0.56250000       0.31250000 </v>
   <v>       0.56250000       0.56250000       0.31250000 </v>
   <v>       0.81250000       0.56250000       0.31250000 </v>
   <v>       0.06250000       0.81250000       0.31250000 </v>
   <v>       0.31250000       0.81250000       0.31250000 </v>
   <v>       0.56250000       0.81250000       0.31250000 </v>
   <v>       0.81250000       0.81250000       0.31250000 </v>
   <v>       0.06250000       0.06250000       0.56250000 </v>
   <v>       0.31250000       0.06250000       0.56250000 </v>
   <v>       0.56250000       0.06250000       0.56250000 </v>
   <v>       0.81250000       0.06250000       0.56250000 </v>
   <v>       0.06250000       0.31250000       0.56250000 </v>
   <v>       0.31250000       0.31250000       0.56250000 </v>
   <v>       0.56250000       0.31250000       0.56250000 </v>
   <v>       0.81250000       0.31250000       0.56250000 </v>
   <v>       0.06250000       0.56250000       0.56250000 </v>
   <v>       0.31250000       0.56250000       0.56250000 </v>
   <v>       0.56250000       0.56250000       0.56250000 </v>
   <v>       0.81250000       0.56250000       0.56250000 </v>
   <v>       0.06250000       0.81250000       0.56250000 </v>
   <v>       0.31250000       0.81250000       0.56250000 </v>
   <v>       0.56250000       0.81250000       0.56250000 </v>
   <v>       0.81250000       0.81250000       0.56250000 </v>
   <v>       0.06250000       0.06250000       0.81250000 </v>
   <v>       0.31250000       0.06250000       0.81250000 </v>
   <v>       0.56250000       0.06250000       0.81250000 </v>
   <v>       0.81250000       0.06250000       0.81250000 </v>
   <v>       0.06250000       0.31250000       0.81250000 </v>
   <v>       0.31250000       0.31250000       0.81250000 </v>
   <v>       0.56250000       0.31250000       0.81250000 </v>
   <v>       0.81250000       0.31250000       0.81250000 </v>
   <v>       0.06250000       0.56250000       0.81250000 </v>
   <v>       0.31250000       0.56250000       0.81250000 </v>
   <v>       0.56250000       0.56250000       0.81250000 </v>
   <v>       0.81250000       0.56250000       0.81250000 </v>
   <v>       0.06250000       0.81250000       0.81250000 </v>
   <v>       0.31250000       0.81250000       0.81250000 </v>
   <v>       0.56250000       0.81250000       0.81250000 </v>
   <v>       0.81250000       0.81250000       0.81250000 </v>
   <v>       0.00000000       0.00000000       0.00000000 </v>
   <v>       0.25000000       0.00000000       0.00000000 </v>
   <v>       0.50000000       0.00000000       0.00000000 </v>
   <v>       0.75000000       0.00000000       0.00000000 </v>
   <v>       0.00000000       0.25000000       0.00000000 </v>
   <v>       0.25000000       0.25000000       0.00000000 </v>
   <v>       0.50000000       0.25000000       0.00000000 </v>
   <v>       0.75000000       0.25000000       0.00000000 </v>
   <v>       0.00000000       0.50000000       0.00000000 </v>
   <v>       0.25000000       0.50000000       0.00000000 </v>
   <v>       0.50000000       0.50000000       0.00000000 </v>
   <v>       0.75000000       0.50000000       0.00000000 </v>
   <v>       0.00000000       0.75000000       0.00000000 </v>
   <v>       0.25000000       0.75000000       0.00000000 </v>
   <v>       0.50000000       0.75000000       0.00000000 </v>
   <v>       0.75000000       0.75000000       0.00000000 </v>
   <v>       0.00000000       0.00000000       0.25000000 </v>
   <v>       0.25000000       0.00000000       0.25000000 </v>
   <v>       0.50000000       0.00000000       0.25000000 </v>
   <v>       0.75000000       0.00000000       0.25000000 </v>
   <v>       0.00000000       0.25000000       0.25000000 </v>
   <v>       0.25000000       0.25000000       0.25000000 </v>
   <v>       0.50000000       0.25000000       0.25000000 </v>
   <v>       0.75000000       0.25000000       0.25000000 </v>
   <v>       0.00000000       0.50000000       0.25000000 </v>
   <v>       0.25000000       0.50000000       0.25000000 </v>
   <v>       0.50000000       0.50000000       0.25000000 </v>
   <v>       0.75000000       0.50000000       0.25000000 </v>
   <v>       0.00000000       0.75000000       0.25000000 </v>
   <v>       0.25000000       0.75000000       0.25000000 </v>
   <v>       0.50000000       0.75000000       0.25000000 </v>
   <v>       0.75000000       0.75000000       0.25000000 </v>
   <v>       0.00000000       0.00000000       0.50000000 </v>
   <v>       0.25000000       0.00000000       0.50000000 </v>
   <v>       0.50000000       0.00000000       0.50000000 </v>
   <v>       0.75000000       0.00000000       0.50000000 </v>
   <v>       0.00000000       0.25000000       0.50000000 </v>
   <v>       0.25000000       0.25000000       0.50000000 </v>
   <v>       0.50000000       0.25000000       0.50000000 </v>
   <v>       0.75000000       0.25000000       0.50000000 </v>
   <v>       0.00000000       0.50000000       0.50000000 </v>
   <v>       0.25000000       0.50000000       0.50000000 </v>
   <v>       0.50000000       0.50000000       0.50000000 </v>
   <v>       0.75000000       0.50000000       0.50000000 </v>
   <v>       0.00000000       0.75000000       0.50000000 </v>
   <v>       0.25000000       0.75000000       0.50000000 </v>
   <v>       0.50000000       0.75000000       0.50000000 </v>
   <v>       0.75000000       0.75000000       0.50000000 </v>
   <v>       0.00000000       0.00000000       0.75000000 </v>
   <v>       0.25000000       0.00000000       0.75000000 </v>
   <v>       0.50000000       0.00000000       0.75000000 </v>
   <v>       0.75000000       0.00000000       0.75000000 </v>
   <v>       0.00000000       0.25000000       0.75000000 </v>
   <v>       0.25000000       0.25000000       0.75000000 </v>
   <v>       0.50000000       0.25000000       0.75000000 </v>
   <v>       0.75000000       0.25000000       0.75000000 </v>
   <v>       0.00000000       0.50000000       0.75000000 </v>
   <v>       0.25000000       0.50000000       0.75000000 </v>
   <v>       0.50000000       0.50000000       0.75000000 </v>
   <v>       0.75000000       0.50000000       0.75000000 </v>
   <v>       0.00000000       0.75000000       0.75000000 </v>
   <v>       0.25000000       0.75000000       0.75000000 </v>
   <v>       0.50000000       0.75000000       0.75000000 </v>
   <v>       0.75000000       0.75000000       0.75000000 </v>
  </varray>
 </structure>
</modeling>
